Mn-pyrridine-N2-diagonal_nh2            
   1.00000000000000     
    12.5247745909999999    0.0000000000000000    0.0000000000000000
     0.0000000000000000   12.8100004142999992    0.0000000000000000
     0.0000000000000000    0.0000000000000000   19.8713392818999992
   C    N    Mn   H 
    56     3     1     2
Direct
  0.0519601493934535  0.0473517780183783  0.1571913174099986
  0.1520288572888354  0.1017432265714507  0.1576383585791997
  0.1509088072193696  0.2128848148955703  0.1578236973278141
  0.0512495732723219  0.2688486546390830  0.1570419652372494
  0.2528260657865070  0.0469159951861501  0.1575286209197960
  0.3526720574690450  0.1027556720716354  0.1579199164804544
  0.3512106507130563  0.2147631280980976  0.1588153813756851
  0.2500401327398240  0.2678911491221503  0.1584922525411888
  0.4528038883294553  0.0473726716922850  0.1579624135425738
  0.5511240774667950  0.1060081469973494  0.1583206731585235
  0.5503472405383498  0.2191849439286190  0.1592443878223081
  0.4491826940869984  0.2742483959332290  0.1606509782882645
  0.6508461845269017  0.0489209221854452  0.1575497241792866
  0.7506290762400135  0.1048410361476123  0.1568328803160727
  0.7507080016222502  0.2170381390607046  0.1563738738495318
  0.6506822564340530  0.2759894050765720  0.1573968409052751
  0.8510409394304090  0.0485758891715813  0.1569573828129232
  0.9514516759385270  0.1030439953923008  0.1569232461455576
  0.9513503334070350  0.2143208776010005  0.1567179472000454
  0.8516504634448877  0.2705687485363195  0.1563413365736046
  0.0516985829703965  0.3802456363170365  0.1565150090005631
  0.1503420773539685  0.4356807911595199  0.1566241414835041
  0.1509888700570801  0.5470809177862531  0.1563438893757117
  0.0526730797994311  0.6035295669146932  0.1565328592867082
  0.2487736118575011  0.3788951686590093  0.1578679358824052
  0.3468995120931541  0.4330791688455445  0.1587874246554394
  0.3483639636899631  0.5448023794204293  0.1565572465784729
  0.2503594855563763  0.6017407891187575  0.1562977150588902
  0.7560132151626525  0.4389449005355718  0.1566292089625430
  0.7574781734363109  0.5506678305980170  0.1588772253665548
  0.8540170740603583  0.3820110735002246  0.1564027466941132
  0.9533752878993200  0.4366975028688076  0.1564266772573541
  0.9540277875364023  0.5480903105659539  0.1567224064062855
  0.8556079394635165  0.6048681469881263  0.1579769981816862
  0.0531179379171807  0.7149142975529882  0.1570697699306629
  0.1530253380875522  0.7694312501983454  0.1567127132271164
  0.0524528626806156  0.9364020472104382  0.1572062737778958
  0.2527232623925685  0.7131725255732764  0.1562833303642619
  0.3536844953606992  0.7666766517757526  0.1562824106197832
  0.3537637802033296  0.8788649871782481  0.1567647207998066
  0.2533600743459049  0.9351676342024481  0.1569497011044244
  0.4537161800621057  0.7077135145269826  0.1573286371358408
  0.5540453094824759  0.7645194476838226  0.1592139501565149
  0.5532630570431457  0.8776828743396575  0.1582898265730402
  0.4535606938439960  0.9347664310990808  0.1575008063864080
  0.6552312999446638  0.7094922975363640  0.1606699115194069
  0.7531994172678770  0.7689744837745027  0.1588561095920220
  0.7517479211471858  0.8809679405548229  0.1579505160369790
  0.6515996656784581  0.9363273441411225  0.1579818053573037
  0.8543624986295938  0.7158595068822216  0.1585644787837885
  0.9534896823898924  0.7708705136432301  0.1578864952647988
  0.8515867444451929  0.9368249097654026  0.1575398624913045
  0.1529504232296255  0.8807040396057663  0.1569331623798457
  0.9523856362045670  0.8820076307794165  0.1576709980093149
  0.4483242412184926  0.5965710859188675  0.1580086530303198
  0.6560666698979984  0.3871325513336829  0.1580681772622666
  0.4443554225461276  0.3825596895457308  0.1632211138808575
  0.6600592418126382  0.6012052301882210  0.1632559552743788
  0.5523554224778950  0.4919760801318587  0.2819521208878848
  0.5522148832459285  0.4918758811003719  0.1898971975259831
  0.5943001318295775  0.5431042813799737  0.3113391066108525
  0.5104183618796158  0.4409143049012542  0.3113941017225048
 
  0.00000000E+00  0.00000000E+00  0.00000000E+00
  0.00000000E+00  0.00000000E+00  0.00000000E+00
  0.00000000E+00  0.00000000E+00  0.00000000E+00
  0.00000000E+00  0.00000000E+00  0.00000000E+00
  0.00000000E+00  0.00000000E+00  0.00000000E+00
  0.00000000E+00  0.00000000E+00  0.00000000E+00
  0.00000000E+00  0.00000000E+00  0.00000000E+00
  0.00000000E+00  0.00000000E+00  0.00000000E+00
  0.00000000E+00  0.00000000E+00  0.00000000E+00
  0.00000000E+00  0.00000000E+00  0.00000000E+00
  0.00000000E+00  0.00000000E+00  0.00000000E+00
  0.00000000E+00  0.00000000E+00  0.00000000E+00
  0.00000000E+00  0.00000000E+00  0.00000000E+00
  0.00000000E+00  0.00000000E+00  0.00000000E+00
  0.00000000E+00  0.00000000E+00  0.00000000E+00
  0.00000000E+00  0.00000000E+00  0.00000000E+00
  0.00000000E+00  0.00000000E+00  0.00000000E+00
  0.00000000E+00  0.00000000E+00  0.00000000E+00
  0.00000000E+00  0.00000000E+00  0.00000000E+00
  0.00000000E+00  0.00000000E+00  0.00000000E+00
  0.00000000E+00  0.00000000E+00  0.00000000E+00
  0.00000000E+00  0.00000000E+00  0.00000000E+00
  0.00000000E+00  0.00000000E+00  0.00000000E+00
  0.00000000E+00  0.00000000E+00  0.00000000E+00
  0.00000000E+00  0.00000000E+00  0.00000000E+00
  0.00000000E+00  0.00000000E+00  0.00000000E+00
  0.00000000E+00  0.00000000E+00  0.00000000E+00
  0.00000000E+00  0.00000000E+00  0.00000000E+00
  0.00000000E+00  0.00000000E+00  0.00000000E+00
  0.00000000E+00  0.00000000E+00  0.00000000E+00
  0.00000000E+00  0.00000000E+00  0.00000000E+00
  0.00000000E+00  0.00000000E+00  0.00000000E+00
  0.00000000E+00  0.00000000E+00  0.00000000E+00
  0.00000000E+00  0.00000000E+00  0.00000000E+00
  0.00000000E+00  0.00000000E+00  0.00000000E+00
  0.00000000E+00  0.00000000E+00  0.00000000E+00
  0.00000000E+00  0.00000000E+00  0.00000000E+00
  0.00000000E+00  0.00000000E+00  0.00000000E+00
  0.00000000E+00  0.00000000E+00  0.00000000E+00
  0.00000000E+00  0.00000000E+00  0.00000000E+00
  0.00000000E+00  0.00000000E+00  0.00000000E+00
  0.00000000E+00  0.00000000E+00  0.00000000E+00
  0.00000000E+00  0.00000000E+00  0.00000000E+00
  0.00000000E+00  0.00000000E+00  0.00000000E+00
  0.00000000E+00  0.00000000E+00  0.00000000E+00
  0.00000000E+00  0.00000000E+00  0.00000000E+00
  0.00000000E+00  0.00000000E+00  0.00000000E+00
  0.00000000E+00  0.00000000E+00  0.00000000E+00
  0.00000000E+00  0.00000000E+00  0.00000000E+00
  0.00000000E+00  0.00000000E+00  0.00000000E+00
  0.00000000E+00  0.00000000E+00  0.00000000E+00
  0.00000000E+00  0.00000000E+00  0.00000000E+00
  0.00000000E+00  0.00000000E+00  0.00000000E+00
  0.00000000E+00  0.00000000E+00  0.00000000E+00
  0.00000000E+00  0.00000000E+00  0.00000000E+00
  0.00000000E+00  0.00000000E+00  0.00000000E+00
  0.00000000E+00  0.00000000E+00  0.00000000E+00
  0.00000000E+00  0.00000000E+00  0.00000000E+00
  0.00000000E+00  0.00000000E+00  0.00000000E+00
  0.00000000E+00  0.00000000E+00  0.00000000E+00
  0.00000000E+00  0.00000000E+00  0.00000000E+00
  0.00000000E+00  0.00000000E+00  0.00000000E+00
