Ti-N1-pyrrole_nh2                       
   1.00000000000000     
     8.4904413577000000    0.0000000000000000    0.0000000000000000
     0.0000000000000000    8.4904132228999991    0.0000000000000000
     0.0000000000000000    0.0000000000000000   19.8713392818999992
   C    N    Ti   H 
    23     2     1     2
Direct
  0.5017605747877247  0.0811697657010720  0.1531558243660024
  0.3535467589031732  0.1642536480830403  0.1539975082241636
  0.6453405252424512  0.1649366914133629  0.1531354666284126
  0.7992643977036946  0.9195563713385594  0.1508425880380436
  0.7976686755555155  0.0828976206671051  0.1506841031493147
  0.9177765691161487  0.2034123474578220  0.1499035022264716
  0.8304746716553687  0.3580926777559807  0.1517797835027254
  0.2040747187079900  0.0799330710640369  0.1509276086316473
  0.0801380669036132  0.2038691634854321  0.1505723245952424
  0.1644397088937850  0.3533983444533247  0.1531588263866620
  0.0814072151660613  0.5015983233846583  0.1517200436649561
  0.1651329810377675  0.6450901685553782  0.1520784104565248
  0.3583212198714716  0.8302001040754019  0.1523673493822695
  0.2037168313568643  0.9175907067382830  0.1500587983524501
  0.0830836316014550  0.7975070969721417  0.1500040005341360
  0.6514495378366202  0.8352349042909972  0.1533931739542861
  0.8354480185397638  0.6512431404342428  0.1525068805303575
  0.9197044366075009  0.7991657723928499  0.1502993125561686
  0.5032707732727510  0.9136391750680934  0.1529040560876748
  0.9139091457288054  0.5031169857203812  0.1515796837646915
  0.6671570782415974  0.3334904165164386  0.1563073951478539
  0.3311253189250650  0.3310020641146560  0.1597325753877094
  0.3336404454518669  0.6667961759776696  0.1561535766106980
  0.6749482105226524  0.6746040107889946  0.1565590674514467
  0.4979195697690402  0.4986628942825726  0.2869260675762102
  0.5030490985531830  0.5028363698193650  0.1909040845982390
  0.5662616157061074  0.4291516409143505  0.3170447544662011
  0.4199998322209730  0.5603970970212391  0.3158657337930226
 
  0.00000000E+00  0.00000000E+00  0.00000000E+00
  0.00000000E+00  0.00000000E+00  0.00000000E+00
  0.00000000E+00  0.00000000E+00  0.00000000E+00
  0.00000000E+00  0.00000000E+00  0.00000000E+00
  0.00000000E+00  0.00000000E+00  0.00000000E+00
  0.00000000E+00  0.00000000E+00  0.00000000E+00
  0.00000000E+00  0.00000000E+00  0.00000000E+00
  0.00000000E+00  0.00000000E+00  0.00000000E+00
  0.00000000E+00  0.00000000E+00  0.00000000E+00
  0.00000000E+00  0.00000000E+00  0.00000000E+00
  0.00000000E+00  0.00000000E+00  0.00000000E+00
  0.00000000E+00  0.00000000E+00  0.00000000E+00
  0.00000000E+00  0.00000000E+00  0.00000000E+00
  0.00000000E+00  0.00000000E+00  0.00000000E+00
  0.00000000E+00  0.00000000E+00  0.00000000E+00
  0.00000000E+00  0.00000000E+00  0.00000000E+00
  0.00000000E+00  0.00000000E+00  0.00000000E+00
  0.00000000E+00  0.00000000E+00  0.00000000E+00
  0.00000000E+00  0.00000000E+00  0.00000000E+00
  0.00000000E+00  0.00000000E+00  0.00000000E+00
  0.00000000E+00  0.00000000E+00  0.00000000E+00
  0.00000000E+00  0.00000000E+00  0.00000000E+00
  0.00000000E+00  0.00000000E+00  0.00000000E+00
  0.00000000E+00  0.00000000E+00  0.00000000E+00
  0.00000000E+00  0.00000000E+00  0.00000000E+00
  0.00000000E+00  0.00000000E+00  0.00000000E+00
  0.00000000E+00  0.00000000E+00  0.00000000E+00
  0.00000000E+00  0.00000000E+00  0.00000000E+00
