Fe-pyrridine-N1_nh2                     
   1.00000000000000     
    12.5173811515000004    0.0000000000000000    0.0000000000000000
     0.0000000000000000   12.8172800981999995    0.0000000000000000
     0.0000000000000000    0.0000000000000000   19.8713392818999992
   C    N    Fe   H 
    57     2     1     2
Direct
  0.0537455208558015  0.0491833771185515  0.1562143743528285
  0.1537313914138142  0.1036317369681010  0.1576716050753275
  0.1529726622457821  0.2148246063882052  0.1576664391073976
  0.0531428606830830  0.2700432572203957  0.1560383894011360
  0.2545728374241890  0.0488372220345817  0.1588215467512284
  0.3544068024100864  0.1047637550625559  0.1606056043687128
  0.3535356371575271  0.2172906787437517  0.1614067204284041
  0.2524021279415115  0.2701186373014501  0.1593246250394647
  0.4543135219938511  0.0489896881046337  0.1610416203116284
  0.5535650900653617  0.1068387963446449  0.1608690574930510
  0.5531696267226129  0.2192430546088974  0.1626407367896321
  0.4530762646725097  0.2759668703634522  0.1647620372818212
  0.6530903505221788  0.0496899162046065  0.1585229765677482
  0.7527833223365744  0.1055604948301775  0.1569397973484659
  0.7529842869227529  0.2178747605962068  0.1565999250242074
  0.6530996094762664  0.2764011635201921  0.1593953460948458
  0.8529869903515882  0.0497202564562693  0.1559777731740097
  0.9533233139469234  0.1042738619018500  0.1557687718093571
  0.9534539232896936  0.2154470354643721  0.1555453208600915
  0.8535652017973954  0.2715152941158820  0.1551252254469231
  0.0530452847977428  0.3819610584655997  0.1552290080750679
  0.1515879528652657  0.4373308864257542  0.1560601114414054
  0.1517465298170989  0.5490322274695822  0.1554790634706608
  0.0534703905489772  0.6049046050629213  0.1543738788506143
  0.2503059800364906  0.3812048283772659  0.1588820713647639
  0.3476351597276108  0.4367215201187478  0.1636968714848714
  0.3476949299071215  0.5488214780867181  0.1624748220497537
  0.2505172369577136  0.6047886666212927  0.1573483157112658
  0.7567566808481764  0.4390730993793587  0.1544790384467588
  0.7579754242338256  0.5523020322300971  0.1540028867553552
  0.8553528411236045  0.3830195502674288  0.1541437953457872
  0.9546178338772221  0.4379548732127560  0.1541974649943408
  0.9550302043380802  0.5494670414679401  0.1539569169417147
  0.8565664902897795  0.6060569949245252  0.1537463398723128
  0.0541492684673683  0.7168832417421052  0.1544429186903631
  0.1538242393354977  0.7717532943412500  0.1556707850784917
  0.0539919588616943  0.9381830944513604  0.1556318724525583
  0.2534223294774312  0.7158632630656061  0.1572677710865805
  0.3545349596976066  0.7683706410893809  0.1593331638827005
  0.3550398790350798  0.8807123112479496  0.1592382165244779
  0.2548739616404779  0.9371995452519518  0.1579848812155340
  0.4545625683045308  0.7090046249694313  0.1623156101824579
  0.5551842879616120  0.7655522254331981  0.1604262877622611
  0.5547379691573733  0.8786549246982570  0.1597700819399887
  0.4549267062019495  0.9362253883106326  0.1603986834480867
  0.6565450732109647  0.7103536329279277  0.1576086633480842
  0.7547073602916159  0.7701481410945664  0.1557062879882380
  0.7535070696122406  0.8822067572719765  0.1562787454506991
  0.6533593268297397  0.9371297963735220  0.1580904560981108
  0.8554057945541115  0.7171705346657008  0.1542370558564168
  0.9547349796595778  0.7725472409478100  0.1542643063342824
  0.8533029904587751  0.9381061800348011  0.1556709564649373
  0.1541325517751768  0.8829433466480821  0.1562435911986232
  0.9539806171892218  0.8835856327200484  0.1549666069533938
  0.4481605441996159  0.3877716409474206  0.1697124730754694
  0.4476273485943419  0.5981178155334522  0.1675044402347743
  0.6571725056445935  0.3880351689254162  0.1595588577595161
  0.6612384812424539  0.6021779973628809  0.1562038917642465
  0.5207589024788892  0.4682324358277240  0.2778710439666927
  0.5547911527760803  0.4907902543591129  0.1938704392044435
  0.5797785927983005  0.4859390538055007  0.3120264459230265
  0.4599472990413944  0.4266715008106391  0.2993324373817420
 
  0.00000000E+00  0.00000000E+00  0.00000000E+00
  0.00000000E+00  0.00000000E+00  0.00000000E+00
  0.00000000E+00  0.00000000E+00  0.00000000E+00
  0.00000000E+00  0.00000000E+00  0.00000000E+00
  0.00000000E+00  0.00000000E+00  0.00000000E+00
  0.00000000E+00  0.00000000E+00  0.00000000E+00
  0.00000000E+00  0.00000000E+00  0.00000000E+00
  0.00000000E+00  0.00000000E+00  0.00000000E+00
  0.00000000E+00  0.00000000E+00  0.00000000E+00
  0.00000000E+00  0.00000000E+00  0.00000000E+00
  0.00000000E+00  0.00000000E+00  0.00000000E+00
  0.00000000E+00  0.00000000E+00  0.00000000E+00
  0.00000000E+00  0.00000000E+00  0.00000000E+00
  0.00000000E+00  0.00000000E+00  0.00000000E+00
  0.00000000E+00  0.00000000E+00  0.00000000E+00
  0.00000000E+00  0.00000000E+00  0.00000000E+00
  0.00000000E+00  0.00000000E+00  0.00000000E+00
  0.00000000E+00  0.00000000E+00  0.00000000E+00
  0.00000000E+00  0.00000000E+00  0.00000000E+00
  0.00000000E+00  0.00000000E+00  0.00000000E+00
  0.00000000E+00  0.00000000E+00  0.00000000E+00
  0.00000000E+00  0.00000000E+00  0.00000000E+00
  0.00000000E+00  0.00000000E+00  0.00000000E+00
  0.00000000E+00  0.00000000E+00  0.00000000E+00
  0.00000000E+00  0.00000000E+00  0.00000000E+00
  0.00000000E+00  0.00000000E+00  0.00000000E+00
  0.00000000E+00  0.00000000E+00  0.00000000E+00
  0.00000000E+00  0.00000000E+00  0.00000000E+00
  0.00000000E+00  0.00000000E+00  0.00000000E+00
  0.00000000E+00  0.00000000E+00  0.00000000E+00
  0.00000000E+00  0.00000000E+00  0.00000000E+00
  0.00000000E+00  0.00000000E+00  0.00000000E+00
  0.00000000E+00  0.00000000E+00  0.00000000E+00
  0.00000000E+00  0.00000000E+00  0.00000000E+00
  0.00000000E+00  0.00000000E+00  0.00000000E+00
  0.00000000E+00  0.00000000E+00  0.00000000E+00
  0.00000000E+00  0.00000000E+00  0.00000000E+00
  0.00000000E+00  0.00000000E+00  0.00000000E+00
  0.00000000E+00  0.00000000E+00  0.00000000E+00
  0.00000000E+00  0.00000000E+00  0.00000000E+00
  0.00000000E+00  0.00000000E+00  0.00000000E+00
  0.00000000E+00  0.00000000E+00  0.00000000E+00
  0.00000000E+00  0.00000000E+00  0.00000000E+00
  0.00000000E+00  0.00000000E+00  0.00000000E+00
  0.00000000E+00  0.00000000E+00  0.00000000E+00
  0.00000000E+00  0.00000000E+00  0.00000000E+00
  0.00000000E+00  0.00000000E+00  0.00000000E+00
  0.00000000E+00  0.00000000E+00  0.00000000E+00
  0.00000000E+00  0.00000000E+00  0.00000000E+00
  0.00000000E+00  0.00000000E+00  0.00000000E+00
  0.00000000E+00  0.00000000E+00  0.00000000E+00
  0.00000000E+00  0.00000000E+00  0.00000000E+00
  0.00000000E+00  0.00000000E+00  0.00000000E+00
  0.00000000E+00  0.00000000E+00  0.00000000E+00
  0.00000000E+00  0.00000000E+00  0.00000000E+00
  0.00000000E+00  0.00000000E+00  0.00000000E+00
  0.00000000E+00  0.00000000E+00  0.00000000E+00
  0.00000000E+00  0.00000000E+00  0.00000000E+00
  0.00000000E+00  0.00000000E+00  0.00000000E+00
  0.00000000E+00  0.00000000E+00  0.00000000E+00
  0.00000000E+00  0.00000000E+00  0.00000000E+00
  0.00000000E+00  0.00000000E+00  0.00000000E+00
