Cr-pyrridine-N2_nh2                     
   1.00000000000000     
    12.5277446475000005    0.0000000000000000    0.0000000000000000
     0.0000000000000000   12.8292981346000001    0.0000000000000000
     0.0000000000000000    0.0000000000000000   19.8713392818999992
   C    N    Cr   H 
    56     3     1     2
Direct
  0.0535140873108766  0.0473145015714763  0.1561212256120946
  0.1538988911424744  0.1023180582445366  0.1564249780104784
  0.1533831239873108  0.2134425854624930  0.1565030837273211
  0.0534071030800004  0.2687428248518225  0.1552914311813323
  0.2545793880761044  0.0477019628825491  0.1568988552874287
  0.3546765823811714  0.1038061054833428  0.1577992320335347
  0.3539200792605991  0.2159195720262118  0.1589239991583095
  0.2527042807197217  0.2689355487204795  0.1581483471350494
  0.4549131431183365  0.0482556082830377  0.1583887293747694
  0.5544136847314449  0.1061947094182015  0.1587067060488918
  0.5545288728442368  0.2192945920732775  0.1601311249922890
  0.4534716198384351  0.2751384479268130  0.1620864130092516
  0.6531548357781860  0.0481558150460028  0.1573414846321346
  0.7528624634231976  0.1038170981079901  0.1562554325048317
  0.7536930466135695  0.2157038607245902  0.1559969829508447
  0.6554419947609958  0.2750970391665795  0.1579456041417649
  0.8529396076569585  0.0477302817522806  0.1559272039998717
  0.9532853102446125  0.1023114518563632  0.1557211995060983
  0.9538287964530239  0.2136794095491670  0.1551062248753476
  0.8545041118547418  0.2693612218347726  0.1548993988384580
  0.0528394945895483  0.3802363325861274  0.1548279172883547
  0.1511806926741922  0.4361499731376388  0.1564390359522129
  0.1511739483546576  0.5476014262014245  0.1564578917763141
  0.0528232805562802  0.6035007035999930  0.1548202684512864
  0.2500100111805666  0.3802236795728045  0.1589023251688103
  0.3471078347636059  0.4359324014393570  0.1634886846023964
  0.3471205696621903  0.5477841635974033  0.1634864257978667
  0.2500152199738308  0.6035128952606165  0.1589312453853394
  0.7566981501253279  0.4355054830826572  0.1544293115121929
  0.7566934515544570  0.5482553445169003  0.1544321518672816
  0.8555604133044549  0.3806734218091545  0.1541240269813376
  0.9543692226162357  0.4361579602345974  0.1539600697843959
  0.9543674626430946  0.5475668589227706  0.1539582225860644
  0.8555531233735063  0.6030671761099977  0.1541034797012772
  0.0534107330740337  0.7149984799791497  0.1552732710540685
  0.1533881156586706  0.7702868680025716  0.1565330171082699
  0.0535201923343301  0.9364208482239904  0.1561227194612712
  0.2527084028447244  0.7148083424253689  0.1581988245676781
  0.3539205450262910  0.7678180548711910  0.1589883898855421
  0.3546829060910666  0.8799398496976841  0.1578434137742961
  0.2545880210278662  0.9360410771493159  0.1569110244256050
  0.4534684430146748  0.7085840361074002  0.1621357695629966
  0.5545170286640810  0.7644432053714013  0.1601847199890553
  0.5544199401132314  0.8775438955792918  0.1587421445087054
  0.4549182747598088  0.9355042275836000  0.1584116291925969
  0.6554426620859399  0.7086526572618583  0.1579833499066634
  0.7536869417289420  0.7680469744053046  0.1560103152700084
  0.7528785984534978  0.8799315265525792  0.1562698688996580
  0.6531530707042109  0.9355725676207061  0.1573510318283275
  0.8545070022447382  0.7143921761018417  0.1548906304186171
  0.9538250637635347  0.7700520117066367  0.1550972074708595
  0.8529439744574305  0.9360248913187275  0.1559347156881853
  0.1538943955046402  0.8814262952331020  0.1564436545110671
  0.9532987282128114  0.8814323921969111  0.1557381358954466
  0.4475224829016065  0.3856617850571462  0.1681242139004121
  0.4475386104091401  0.5980526658619491  0.1681386100622181
  0.6596591206625922  0.3837184548752298  0.1574738720781984
  0.6596489161312341  0.6000232275282470  0.1575033928592707
  0.5288093678632825  0.4918923352098000  0.2851495307017327
  0.5574571456184289  0.4918419177766084  0.1957250885347710
  0.5905239089317763  0.4920865726896942  0.3190654197364780
  0.4569402315611904  0.4919426766835109  0.3095238445197290
 
  0.00000000E+00  0.00000000E+00  0.00000000E+00
  0.00000000E+00  0.00000000E+00  0.00000000E+00
  0.00000000E+00  0.00000000E+00  0.00000000E+00
  0.00000000E+00  0.00000000E+00  0.00000000E+00
  0.00000000E+00  0.00000000E+00  0.00000000E+00
  0.00000000E+00  0.00000000E+00  0.00000000E+00
  0.00000000E+00  0.00000000E+00  0.00000000E+00
  0.00000000E+00  0.00000000E+00  0.00000000E+00
  0.00000000E+00  0.00000000E+00  0.00000000E+00
  0.00000000E+00  0.00000000E+00  0.00000000E+00
  0.00000000E+00  0.00000000E+00  0.00000000E+00
  0.00000000E+00  0.00000000E+00  0.00000000E+00
  0.00000000E+00  0.00000000E+00  0.00000000E+00
  0.00000000E+00  0.00000000E+00  0.00000000E+00
  0.00000000E+00  0.00000000E+00  0.00000000E+00
  0.00000000E+00  0.00000000E+00  0.00000000E+00
  0.00000000E+00  0.00000000E+00  0.00000000E+00
  0.00000000E+00  0.00000000E+00  0.00000000E+00
  0.00000000E+00  0.00000000E+00  0.00000000E+00
  0.00000000E+00  0.00000000E+00  0.00000000E+00
  0.00000000E+00  0.00000000E+00  0.00000000E+00
  0.00000000E+00  0.00000000E+00  0.00000000E+00
  0.00000000E+00  0.00000000E+00  0.00000000E+00
  0.00000000E+00  0.00000000E+00  0.00000000E+00
  0.00000000E+00  0.00000000E+00  0.00000000E+00
  0.00000000E+00  0.00000000E+00  0.00000000E+00
  0.00000000E+00  0.00000000E+00  0.00000000E+00
  0.00000000E+00  0.00000000E+00  0.00000000E+00
  0.00000000E+00  0.00000000E+00  0.00000000E+00
  0.00000000E+00  0.00000000E+00  0.00000000E+00
  0.00000000E+00  0.00000000E+00  0.00000000E+00
  0.00000000E+00  0.00000000E+00  0.00000000E+00
  0.00000000E+00  0.00000000E+00  0.00000000E+00
  0.00000000E+00  0.00000000E+00  0.00000000E+00
  0.00000000E+00  0.00000000E+00  0.00000000E+00
  0.00000000E+00  0.00000000E+00  0.00000000E+00
  0.00000000E+00  0.00000000E+00  0.00000000E+00
  0.00000000E+00  0.00000000E+00  0.00000000E+00
  0.00000000E+00  0.00000000E+00  0.00000000E+00
  0.00000000E+00  0.00000000E+00  0.00000000E+00
  0.00000000E+00  0.00000000E+00  0.00000000E+00
  0.00000000E+00  0.00000000E+00  0.00000000E+00
  0.00000000E+00  0.00000000E+00  0.00000000E+00
  0.00000000E+00  0.00000000E+00  0.00000000E+00
  0.00000000E+00  0.00000000E+00  0.00000000E+00
  0.00000000E+00  0.00000000E+00  0.00000000E+00
  0.00000000E+00  0.00000000E+00  0.00000000E+00
  0.00000000E+00  0.00000000E+00  0.00000000E+00
  0.00000000E+00  0.00000000E+00  0.00000000E+00
  0.00000000E+00  0.00000000E+00  0.00000000E+00
  0.00000000E+00  0.00000000E+00  0.00000000E+00
  0.00000000E+00  0.00000000E+00  0.00000000E+00
  0.00000000E+00  0.00000000E+00  0.00000000E+00
  0.00000000E+00  0.00000000E+00  0.00000000E+00
  0.00000000E+00  0.00000000E+00  0.00000000E+00
  0.00000000E+00  0.00000000E+00  0.00000000E+00
  0.00000000E+00  0.00000000E+00  0.00000000E+00
  0.00000000E+00  0.00000000E+00  0.00000000E+00
  0.00000000E+00  0.00000000E+00  0.00000000E+00
  0.00000000E+00  0.00000000E+00  0.00000000E+00
  0.00000000E+00  0.00000000E+00  0.00000000E+00
  0.00000000E+00  0.00000000E+00  0.00000000E+00
