Ti-N3-pyrrole_nh2                       
   1.00000000000000     
     8.4941822390000006    0.0022613091000000   -0.0000881369000000
     0.0022234451000000    8.4943986317999993   -0.0000200670000000
    -0.0002060520000000   -0.0000448422000000   19.8362665679999992
   C    N    Ti   H 
    21     4     1     2
Direct
  0.4985532173034994  0.0823113413149882  0.1519169406153016
  0.3507278277401120  0.1632062888284127  0.1523258152436676
  0.6449331577925196  0.1628313991309906  0.1511282226375822
  0.7942512448116965  0.9175435883358954  0.1506651259162694
  0.7921961534112304  0.0812330182945211  0.1501517293608249
  0.9187483605172236  0.2064039962258255  0.1493398807000719
  0.8363577704721903  0.3554118612192306  0.1498783685979194
  0.2049209499318249  0.0818186107513698  0.1510520988893070
  0.0815289415477110  0.2041746122839427  0.1498768701869846
  0.1667641560831987  0.3530397573276016  0.1507837917915283
  0.0871590747770001  0.5008656722234527  0.1505624408372918
  0.1658540732310922  0.6481379113881970  0.1502801993437848
  0.3509899208226706  0.8341086083912803  0.1513441222420392
  0.2043033016106326  0.9167264253356482  0.1502906401308847
  0.0825919769135151  0.7961481867719760  0.1495979166830413
  0.6473223398713309  0.8334073836545218  0.1520835396089739
  0.8365582807201096  0.6482441925920155  0.1511916735142751
  0.9182297774732534  0.7953147995302011  0.1503037420490230
  0.4989577072082177  0.9123698988626799  0.1520022713796233
  0.9175410000336076  0.5013536988081994  0.1505038574705043
  0.6706189053977138  0.3311248422936252  0.1537219609989235
  0.3265028101098150  0.3275448521416814  0.1536512804851270
  0.3261692188473395  0.6722117197088704  0.1525050595227943
  0.6738867472416803  0.6715754796292511  0.1540769912143499
  0.5029983351445114  0.5010895708881404  0.2729210256221745
  0.4984875930586970  0.5033403824103325  0.1779852381932048
  0.6027813562813371  0.4921228371009823  0.3013230824261247
  0.4045155181555319  0.5015831883561029  0.3024766341605324
 
  0.00000000E+00  0.00000000E+00  0.00000000E+00
  0.00000000E+00  0.00000000E+00  0.00000000E+00
  0.00000000E+00  0.00000000E+00  0.00000000E+00
  0.00000000E+00  0.00000000E+00  0.00000000E+00
  0.00000000E+00  0.00000000E+00  0.00000000E+00
  0.00000000E+00  0.00000000E+00  0.00000000E+00
  0.00000000E+00  0.00000000E+00  0.00000000E+00
  0.00000000E+00  0.00000000E+00  0.00000000E+00
  0.00000000E+00  0.00000000E+00  0.00000000E+00
  0.00000000E+00  0.00000000E+00  0.00000000E+00
  0.00000000E+00  0.00000000E+00  0.00000000E+00
  0.00000000E+00  0.00000000E+00  0.00000000E+00
  0.00000000E+00  0.00000000E+00  0.00000000E+00
  0.00000000E+00  0.00000000E+00  0.00000000E+00
  0.00000000E+00  0.00000000E+00  0.00000000E+00
  0.00000000E+00  0.00000000E+00  0.00000000E+00
  0.00000000E+00  0.00000000E+00  0.00000000E+00
  0.00000000E+00  0.00000000E+00  0.00000000E+00
  0.00000000E+00  0.00000000E+00  0.00000000E+00
  0.00000000E+00  0.00000000E+00  0.00000000E+00
  0.00000000E+00  0.00000000E+00  0.00000000E+00
  0.00000000E+00  0.00000000E+00  0.00000000E+00
  0.00000000E+00  0.00000000E+00  0.00000000E+00
  0.00000000E+00  0.00000000E+00  0.00000000E+00
  0.00000000E+00  0.00000000E+00  0.00000000E+00
  0.00000000E+00  0.00000000E+00  0.00000000E+00
  0.00000000E+00  0.00000000E+00  0.00000000E+00
  0.00000000E+00  0.00000000E+00  0.00000000E+00
