Cr-N2-pyrrole_nh2                       
   1.00000000000000     
     8.4931377653000002    0.0000000000000000    0.0000000000000000
     0.0000000000000000    8.5006698191000005    0.0000000000000000
     0.0000000000000000    0.0000000000000000   19.8713392818999992
   C    N    Cr   H 
    22     3     1     2
Direct
  0.4966587976876656  0.0842449757062881  0.1528539482346694
  0.3502864624269062  0.1646351231785002  0.1525781588479957
  0.6430061705169621  0.1671479340724891  0.1525701121052166
  0.7941044720116323  0.9189849360251557  0.1514646776144012
  0.7941092104078238  0.0809520325012083  0.1514643012836611
  0.9182996709515080  0.2054629192342119  0.1520322621648245
  0.8372052069076164  0.3544565693872214  0.1530943284908634
  0.2020668589524270  0.0821508988572976  0.1514440351286900
  0.0820296403600880  0.2032261574394626  0.1515861898712584
  0.1682842833478393  0.3520291053376152  0.1522810603511824
  0.0895813926160531  0.4999743817464589  0.1524541827153219
  0.1682814450230696  0.6479200020455474  0.1522843555818670
  0.3502779858051607  0.8353074413281830  0.1525774462076607
  0.2020689323203313  0.9177951729964857  0.1514427523004673
  0.0820330695118317  0.7967204597183323  0.1515863332395752
  0.6429960711360380  0.8327823949661294  0.1525653070477093
  0.8372014887648279  0.6454902342755638  0.1530925361758339
  0.9182986589000077  0.7944847313508507  0.1520300030179824
  0.4966537826416760  0.9156916343585203  0.1528528268814948
  0.9208539559283166  0.4999755670176687  0.1528685562427843
  0.6673475507229245  0.3325054941275377  0.1550881566017842
  0.6673396521788276  0.6674347753148979  0.1550839084248048
  0.3278144666562797  0.3269993258517290  0.1538918305081386
  0.3278118201647964  0.6729491671025944  0.1538922207753942
  0.5058102203409696  0.4999729459499951  0.2625880425991383
  0.4985154495487801  0.4999744115038807  0.1726995740170620
  0.6064247649559642  0.4999615665511084  0.2906235560886810
  0.4055544717408923  0.4999952743005344  0.2911208076384743
 
  0.00000000E+00  0.00000000E+00  0.00000000E+00
  0.00000000E+00  0.00000000E+00  0.00000000E+00
  0.00000000E+00  0.00000000E+00  0.00000000E+00
  0.00000000E+00  0.00000000E+00  0.00000000E+00
  0.00000000E+00  0.00000000E+00  0.00000000E+00
  0.00000000E+00  0.00000000E+00  0.00000000E+00
  0.00000000E+00  0.00000000E+00  0.00000000E+00
  0.00000000E+00  0.00000000E+00  0.00000000E+00
  0.00000000E+00  0.00000000E+00  0.00000000E+00
  0.00000000E+00  0.00000000E+00  0.00000000E+00
  0.00000000E+00  0.00000000E+00  0.00000000E+00
  0.00000000E+00  0.00000000E+00  0.00000000E+00
  0.00000000E+00  0.00000000E+00  0.00000000E+00
  0.00000000E+00  0.00000000E+00  0.00000000E+00
  0.00000000E+00  0.00000000E+00  0.00000000E+00
  0.00000000E+00  0.00000000E+00  0.00000000E+00
  0.00000000E+00  0.00000000E+00  0.00000000E+00
  0.00000000E+00  0.00000000E+00  0.00000000E+00
  0.00000000E+00  0.00000000E+00  0.00000000E+00
  0.00000000E+00  0.00000000E+00  0.00000000E+00
  0.00000000E+00  0.00000000E+00  0.00000000E+00
  0.00000000E+00  0.00000000E+00  0.00000000E+00
  0.00000000E+00  0.00000000E+00  0.00000000E+00
  0.00000000E+00  0.00000000E+00  0.00000000E+00
  0.00000000E+00  0.00000000E+00  0.00000000E+00
  0.00000000E+00  0.00000000E+00  0.00000000E+00
  0.00000000E+00  0.00000000E+00  0.00000000E+00
  0.00000000E+00  0.00000000E+00  0.00000000E+00
