V-N1-pyrrole_nh2                        
   1.00000000000000     
     8.5192756117999995    0.0000000000000000    0.0000000000000000
     0.0000000000000000    8.5194447346000004    0.0000000000000000
     0.0000000000000000    0.0000000000000000   19.8713392818999992
   C    N    V    H 
    23     2     1     2
Direct
  0.5012560590257367  0.0813574313764605  0.1506310096883554
  0.3546394495575511  0.1644036614316413  0.1516256844674526
  0.6451208854424252  0.1644671670517446  0.1508671062027237
  0.7981234856892137  0.9190613122454345  0.1506416902776785
  0.7955339008790068  0.0833162811577403  0.1504027692902808
  0.9173790139938612  0.2053718472548125  0.1499595957010162
  0.8309295352033284  0.3578176019374977  0.1502035287568002
  0.2050964888743795  0.0803878497090584  0.1510106476895916
  0.0803157962924880  0.2049807775732094  0.1505675294852715
  0.1644331026952034  0.3546642835888800  0.1509121951719218
  0.0813304426544288  0.5011364100250896  0.1497776939301884
  0.1644492653055663  0.6449789780526867  0.1503616808669624
  0.3577525369330051  0.8311508720204006  0.1510701468629916
  0.2055248123125487  0.9173749469230429  0.1504247576648196
  0.0832119528885031  0.7956495980588675  0.1500199783867459
  0.6503196571337184  0.8345821995977920  0.1516309556152477
  0.8345590751673944  0.6501573713689730  0.1509099952574329
  0.9191406915987577  0.7981419133637324  0.1501979731442110
  0.5028386426972995  0.9134753364969748  0.1507513889785108
  0.9134196974935632  0.5027978618025668  0.1498065228466288
  0.6658870442393482  0.3340031403876552  0.1538280457183571
  0.3322265882538488  0.3324096391061775  0.1547922307152505
  0.3337036264596049  0.6657454151236010  0.1543096728534334
  0.6735108993320610  0.6732761444497266  0.1539331305818383
  0.4912076808003635  0.4928482328995568  0.2726616742617106
  0.5007019473145342  0.5009543749524071  0.1809564765498558
  0.5644190187400119  0.4241973981083395  0.3007707814855698
  0.4020326355313720  0.5392742851326916  0.3006583813642571
 
  0.00000000E+00  0.00000000E+00  0.00000000E+00
  0.00000000E+00  0.00000000E+00  0.00000000E+00
  0.00000000E+00  0.00000000E+00  0.00000000E+00
  0.00000000E+00  0.00000000E+00  0.00000000E+00
  0.00000000E+00  0.00000000E+00  0.00000000E+00
  0.00000000E+00  0.00000000E+00  0.00000000E+00
  0.00000000E+00  0.00000000E+00  0.00000000E+00
  0.00000000E+00  0.00000000E+00  0.00000000E+00
  0.00000000E+00  0.00000000E+00  0.00000000E+00
  0.00000000E+00  0.00000000E+00  0.00000000E+00
  0.00000000E+00  0.00000000E+00  0.00000000E+00
  0.00000000E+00  0.00000000E+00  0.00000000E+00
  0.00000000E+00  0.00000000E+00  0.00000000E+00
  0.00000000E+00  0.00000000E+00  0.00000000E+00
  0.00000000E+00  0.00000000E+00  0.00000000E+00
  0.00000000E+00  0.00000000E+00  0.00000000E+00
  0.00000000E+00  0.00000000E+00  0.00000000E+00
  0.00000000E+00  0.00000000E+00  0.00000000E+00
  0.00000000E+00  0.00000000E+00  0.00000000E+00
  0.00000000E+00  0.00000000E+00  0.00000000E+00
  0.00000000E+00  0.00000000E+00  0.00000000E+00
  0.00000000E+00  0.00000000E+00  0.00000000E+00
  0.00000000E+00  0.00000000E+00  0.00000000E+00
  0.00000000E+00  0.00000000E+00  0.00000000E+00
  0.00000000E+00  0.00000000E+00  0.00000000E+00
  0.00000000E+00  0.00000000E+00  0.00000000E+00
  0.00000000E+00  0.00000000E+00  0.00000000E+00
  0.00000000E+00  0.00000000E+00  0.00000000E+00
