Ti-pyrridine-N2-diagonal_nh2            
   1.00000000000000     
    12.4750984331999994    0.0000000000000000    0.0000000000000000
     0.0000000000000000   12.8020813119000003    0.0000000000000000
     0.0000000000000000    0.0000000000000000   19.8713392818999992
   C    N    Ti   H 
    56     3     1     2
Direct
  0.0520635900489004  0.0473140898459285  0.1538524051042838
  0.1519319236458381  0.1018153717883895  0.1541054711359548
  0.1509378875171351  0.2128107742878972  0.1538985130199935
  0.0514271739495008  0.2686753652755198  0.1533673097758758
  0.2525483692881581  0.0469971854081301  0.1543365148330025
  0.3522994162259849  0.1024191900521806  0.1547722043314695
  0.3507919892084966  0.2141253580534862  0.1553473885529597
  0.2500721551534081  0.2677724236045742  0.1545516334326656
  0.4525819850193013  0.0472112846631490  0.1553627511512895
  0.5511234767735554  0.1058212533860198  0.1560152639218049
  0.5504906440969874  0.2183559534127997  0.1575992861410941
  0.4486443163860671  0.2731124956527889  0.1581581104403872
  0.6509863945723035  0.0486361771110859  0.1549356457516397
  0.7512231435338563  0.1040100215972486  0.1541447302256217
  0.7516334376554527  0.2157211299109828  0.1543428944703126
  0.6521140191024397  0.2741698496171647  0.1566056067732123
  0.8514230335816297  0.0481643509353025  0.1537248288100661
  0.9517535883297943  0.1028259293399512  0.1536953623846060
  0.9517760238001012  0.2139763012414559  0.1535674127977895
  0.8520398168761668  0.2700388161569788  0.1538532082434372
  0.0518452434267340  0.3803438248921843  0.1530681841146055
  0.1502305311989370  0.4357720118918491  0.1533500719952117
  0.1507005444332183  0.5471638603309149  0.1534591748688970
  0.0524311078286472  0.6033809524335900  0.1531425687357188
  0.2486328175468299  0.3789444688531254  0.1545087409037223
  0.3467811729666944  0.4325208109586074  0.1569216772227727
  0.3482120014513353  0.5459425570826310  0.1561829710717204
  0.2499013986703623  0.6020467421858925  0.1544430751095231
  0.7560998556005208  0.4376514199057260  0.1556757009823004
  0.7575837703987870  0.5510921025350621  0.1563361649430205
  0.8544397783553278  0.3815752721149366  0.1541372981996190
  0.9535943664593017  0.4365060201130149  0.1533585398694008
  0.9540903484965235  0.5479188705316708  0.1533195392873571
  0.8557025635042127  0.6047195756759502  0.1542261406506714
  0.0529424272091446  0.7150859584939103  0.1534803885934474
  0.1525904581959008  0.7697098631476875  0.1539522150663412
  0.0523475517911518  0.9363851563921611  0.1538632933005309
  0.2523115460577474  0.7135802418135390  0.1542299693974954
  0.3526620374464788  0.7679052103400368  0.1547015429376592
  0.3530605030333496  0.8796597556880872  0.1545905677115534
  0.2529066221640789  0.9355601014991163  0.1543674490311696
  0.4520904073353599  0.7094200117503692  0.1567892568595612
  0.5537119235146103  0.7652812753442242  0.1573702907846631
  0.5530730141881772  0.8777948238062048  0.1558151113943541
  0.4531782807895380  0.9350092824756276  0.1551664576189465
  0.6557020307077591  0.7106508390030504  0.1575327668661648
  0.7535061321232935  0.7697250050482689  0.1546361112170446
  0.7520349264884147  0.8814437872233059  0.1540734569258188
  0.6516255951307230  0.9364543167142979  0.1549193875785590
  0.8542118593150821  0.7159516670321988  0.1540658852230747
  0.9533841622141408  0.7709159101928877  0.1535722768966211
  0.8518283344156999  0.9367781286168534  0.1536406562617827
  0.1526429106217104  0.8808864202126588  0.1541896488373201
  0.9524198488104413  0.8819423823333600  0.1536142991172980
  0.4469924655828004  0.5992821240662217  0.1587521837761611
  0.6573309508394168  0.3842915262425380  0.1583577330045179
  0.4428683544502954  0.3805689610749366  0.1613974997147027
  0.6616024444096941  0.6032188669952836  0.1606358669777152
  0.5551686041151549  0.4921955779360256  0.2946546888121000
  0.5527416027115153  0.4920045792633428  0.1981907021076579
  0.5999930963636356  0.4436270939096257  0.3241326826151806
  0.5111662069241106  0.5409094185437127  0.3245368507965495
 
  0.00000000E+00  0.00000000E+00  0.00000000E+00
  0.00000000E+00  0.00000000E+00  0.00000000E+00
  0.00000000E+00  0.00000000E+00  0.00000000E+00
  0.00000000E+00  0.00000000E+00  0.00000000E+00
  0.00000000E+00  0.00000000E+00  0.00000000E+00
  0.00000000E+00  0.00000000E+00  0.00000000E+00
  0.00000000E+00  0.00000000E+00  0.00000000E+00
  0.00000000E+00  0.00000000E+00  0.00000000E+00
  0.00000000E+00  0.00000000E+00  0.00000000E+00
  0.00000000E+00  0.00000000E+00  0.00000000E+00
  0.00000000E+00  0.00000000E+00  0.00000000E+00
  0.00000000E+00  0.00000000E+00  0.00000000E+00
  0.00000000E+00  0.00000000E+00  0.00000000E+00
  0.00000000E+00  0.00000000E+00  0.00000000E+00
  0.00000000E+00  0.00000000E+00  0.00000000E+00
  0.00000000E+00  0.00000000E+00  0.00000000E+00
  0.00000000E+00  0.00000000E+00  0.00000000E+00
  0.00000000E+00  0.00000000E+00  0.00000000E+00
  0.00000000E+00  0.00000000E+00  0.00000000E+00
  0.00000000E+00  0.00000000E+00  0.00000000E+00
  0.00000000E+00  0.00000000E+00  0.00000000E+00
  0.00000000E+00  0.00000000E+00  0.00000000E+00
  0.00000000E+00  0.00000000E+00  0.00000000E+00
  0.00000000E+00  0.00000000E+00  0.00000000E+00
  0.00000000E+00  0.00000000E+00  0.00000000E+00
  0.00000000E+00  0.00000000E+00  0.00000000E+00
  0.00000000E+00  0.00000000E+00  0.00000000E+00
  0.00000000E+00  0.00000000E+00  0.00000000E+00
  0.00000000E+00  0.00000000E+00  0.00000000E+00
  0.00000000E+00  0.00000000E+00  0.00000000E+00
  0.00000000E+00  0.00000000E+00  0.00000000E+00
  0.00000000E+00  0.00000000E+00  0.00000000E+00
  0.00000000E+00  0.00000000E+00  0.00000000E+00
  0.00000000E+00  0.00000000E+00  0.00000000E+00
  0.00000000E+00  0.00000000E+00  0.00000000E+00
  0.00000000E+00  0.00000000E+00  0.00000000E+00
  0.00000000E+00  0.00000000E+00  0.00000000E+00
  0.00000000E+00  0.00000000E+00  0.00000000E+00
  0.00000000E+00  0.00000000E+00  0.00000000E+00
  0.00000000E+00  0.00000000E+00  0.00000000E+00
  0.00000000E+00  0.00000000E+00  0.00000000E+00
  0.00000000E+00  0.00000000E+00  0.00000000E+00
  0.00000000E+00  0.00000000E+00  0.00000000E+00
  0.00000000E+00  0.00000000E+00  0.00000000E+00
  0.00000000E+00  0.00000000E+00  0.00000000E+00
  0.00000000E+00  0.00000000E+00  0.00000000E+00
  0.00000000E+00  0.00000000E+00  0.00000000E+00
  0.00000000E+00  0.00000000E+00  0.00000000E+00
  0.00000000E+00  0.00000000E+00  0.00000000E+00
  0.00000000E+00  0.00000000E+00  0.00000000E+00
  0.00000000E+00  0.00000000E+00  0.00000000E+00
  0.00000000E+00  0.00000000E+00  0.00000000E+00
  0.00000000E+00  0.00000000E+00  0.00000000E+00
  0.00000000E+00  0.00000000E+00  0.00000000E+00
  0.00000000E+00  0.00000000E+00  0.00000000E+00
  0.00000000E+00  0.00000000E+00  0.00000000E+00
  0.00000000E+00  0.00000000E+00  0.00000000E+00
  0.00000000E+00  0.00000000E+00  0.00000000E+00
  0.00000000E+00  0.00000000E+00  0.00000000E+00
  0.00000000E+00  0.00000000E+00  0.00000000E+00
  0.00000000E+00  0.00000000E+00  0.00000000E+00
  0.00000000E+00  0.00000000E+00  0.00000000E+00
