Cr-pyridine-N4_nh2                      
   1.00000000000000     
    12.4918259100999993    0.0000000000000000    0.0000000000000000
     0.0000000000000000   12.7711110358000006    0.0000000000000000
     0.0000000000000000    0.0000000000000000   20.0000000000000000
   C    N    Cr   H 
    54     5     1     2
Direct
  0.0521903743178590  0.0472692627242166  0.1594872158438494
  0.1525663987204246  0.1023370037749068  0.1587910301489349
  0.1519233575893329  0.2136363410079162  0.1580300102777169
  0.0522004653897603  0.2688630886426609  0.1577582779398415
  0.2530502935170736  0.0477517857322741  0.1580187960803777
  0.3532886874857829  0.1037112391313979  0.1570975626159700
  0.3520293121337167  0.2154757180841861  0.1568360792761254
  0.2509738997146460  0.2690933418703052  0.1569776883630878
  0.4535707616524830  0.0482782451450143  0.1571238774731245
  0.5522025115751701  0.1070194251092596  0.1574581302484344
  0.5522068115050732  0.2209467172607401  0.1581984952529161
  0.4498521019347901  0.2755922889686250  0.1576589198107252
  0.6508239513511485  0.0482813737293896  0.1572008706315061
  0.7511049717945166  0.1037139181621846  0.1572232709820800
  0.7523714386503133  0.2154703494078405  0.1569359207716461
  0.6545669123510742  0.2756048923119050  0.1576998937485638
  0.8513230743471256  0.0477566918989687  0.1581683671774188
  0.9518112901552414  0.1023469496179009  0.1588814879945845
  0.9524767716850410  0.2136435570792730  0.1580644179640018
  0.8534325324743274  0.2690844093051830  0.1569951497864662
  0.0521999823119703  0.3799636505317902  0.1568038152910533
  0.1503348461572729  0.4362300876836742  0.1563323982178363
  0.1503391637862665  0.5475268327656364  0.1563220898314227
  0.0521960083960620  0.6037973298953068  0.1567746441077202
  0.2490653583734445  0.3806221014905778  0.1561992685702933
  0.3469509452875902  0.4356580899962677  0.1561966982147939
  0.3469519194219437  0.5480803563526869  0.1561998720708820
  0.2490717838083951  0.6031166029468927  0.1561611363048454
  0.7574990210580481  0.4356673282261912  0.1561142263511585
  0.7574969093107016  0.5480976850816048  0.1561184990868520
  0.8553615392884155  0.3806102589389785  0.1561430264312712
  0.9540705381053742  0.4362332801060885  0.1563122100357384
  0.9540751784676572  0.5475262037913895  0.1563069224723142
  0.8553692181213242  0.6031455079018155  0.1561402522606024
  0.0521902379579156  0.7148934058163693  0.1577363857504970
  0.1519315800053732  0.7700871750536900  0.1579950695854584
  0.0521953081391690  0.9364847359885968  0.1594837265585092
  0.2509908954883729  0.7146434392493746  0.1569508789564067
  0.3520486726714370  0.7682583441371152  0.1568191378535433
  0.3532837030826884  0.8800283235954672  0.1570707190178670
  0.2530420095810198  0.9359793380363558  0.1580004493118216
  0.4498751782508892  0.7081275389874526  0.1576748158816787
  0.5522148503027416  0.7627890567725433  0.1582302504612711
  0.5522044162852739  0.8767204558261074  0.1574713856383633
  0.4535715978131518  0.9354589211152516  0.1571215150269688
  0.6545723898794286  0.7081368385467309  0.1577413152079655
  0.7523709062995545  0.7682769262706316  0.1569581319584341
  0.7511015305336686  0.8800341886359375  0.1572329928149880
  0.6508254359850660  0.9354700647017248  0.1572208877119058
  0.8534302182214518  0.7146710126076892  0.1570033565905669
  0.9524635194422703  0.7701177119621413  0.1580574676187885
  0.8513270694458899  0.9359914803260891  0.1581780548894600
  0.1525617504500252  0.8813885237814195  0.1587741353961925
  0.9518191100758013  0.8814099331811913  0.1588826241649269
  0.4437743505767893  0.3831440964287671  0.1581781102188330
  0.4437808854512884  0.6005805758511734  0.1582126210072772
  0.6606993755438817  0.3831519295447895  0.1581594135372382
  0.6606925367853910  0.6005918196109867  0.1581930413548275
  0.5522317832349937  0.4916186290481752  0.2708392949125472
  0.5522396265849181  0.4918578402930401  0.1771820548554968
  0.6197514600443578  0.4921011161961610  0.2993806309646572
  0.4846564138822987  0.4920845462689942  0.2993370854343332
 
  0.00000000E+00  0.00000000E+00  0.00000000E+00
  0.00000000E+00  0.00000000E+00  0.00000000E+00
  0.00000000E+00  0.00000000E+00  0.00000000E+00
  0.00000000E+00  0.00000000E+00  0.00000000E+00
  0.00000000E+00  0.00000000E+00  0.00000000E+00
  0.00000000E+00  0.00000000E+00  0.00000000E+00
  0.00000000E+00  0.00000000E+00  0.00000000E+00
  0.00000000E+00  0.00000000E+00  0.00000000E+00
  0.00000000E+00  0.00000000E+00  0.00000000E+00
  0.00000000E+00  0.00000000E+00  0.00000000E+00
  0.00000000E+00  0.00000000E+00  0.00000000E+00
  0.00000000E+00  0.00000000E+00  0.00000000E+00
  0.00000000E+00  0.00000000E+00  0.00000000E+00
  0.00000000E+00  0.00000000E+00  0.00000000E+00
  0.00000000E+00  0.00000000E+00  0.00000000E+00
  0.00000000E+00  0.00000000E+00  0.00000000E+00
  0.00000000E+00  0.00000000E+00  0.00000000E+00
  0.00000000E+00  0.00000000E+00  0.00000000E+00
  0.00000000E+00  0.00000000E+00  0.00000000E+00
  0.00000000E+00  0.00000000E+00  0.00000000E+00
  0.00000000E+00  0.00000000E+00  0.00000000E+00
  0.00000000E+00  0.00000000E+00  0.00000000E+00
  0.00000000E+00  0.00000000E+00  0.00000000E+00
  0.00000000E+00  0.00000000E+00  0.00000000E+00
  0.00000000E+00  0.00000000E+00  0.00000000E+00
  0.00000000E+00  0.00000000E+00  0.00000000E+00
  0.00000000E+00  0.00000000E+00  0.00000000E+00
  0.00000000E+00  0.00000000E+00  0.00000000E+00
  0.00000000E+00  0.00000000E+00  0.00000000E+00
  0.00000000E+00  0.00000000E+00  0.00000000E+00
  0.00000000E+00  0.00000000E+00  0.00000000E+00
  0.00000000E+00  0.00000000E+00  0.00000000E+00
  0.00000000E+00  0.00000000E+00  0.00000000E+00
  0.00000000E+00  0.00000000E+00  0.00000000E+00
  0.00000000E+00  0.00000000E+00  0.00000000E+00
  0.00000000E+00  0.00000000E+00  0.00000000E+00
  0.00000000E+00  0.00000000E+00  0.00000000E+00
  0.00000000E+00  0.00000000E+00  0.00000000E+00
  0.00000000E+00  0.00000000E+00  0.00000000E+00
  0.00000000E+00  0.00000000E+00  0.00000000E+00
  0.00000000E+00  0.00000000E+00  0.00000000E+00
  0.00000000E+00  0.00000000E+00  0.00000000E+00
  0.00000000E+00  0.00000000E+00  0.00000000E+00
  0.00000000E+00  0.00000000E+00  0.00000000E+00
  0.00000000E+00  0.00000000E+00  0.00000000E+00
  0.00000000E+00  0.00000000E+00  0.00000000E+00
  0.00000000E+00  0.00000000E+00  0.00000000E+00
  0.00000000E+00  0.00000000E+00  0.00000000E+00
  0.00000000E+00  0.00000000E+00  0.00000000E+00
  0.00000000E+00  0.00000000E+00  0.00000000E+00
  0.00000000E+00  0.00000000E+00  0.00000000E+00
  0.00000000E+00  0.00000000E+00  0.00000000E+00
  0.00000000E+00  0.00000000E+00  0.00000000E+00
  0.00000000E+00  0.00000000E+00  0.00000000E+00
  0.00000000E+00  0.00000000E+00  0.00000000E+00
  0.00000000E+00  0.00000000E+00  0.00000000E+00
  0.00000000E+00  0.00000000E+00  0.00000000E+00
  0.00000000E+00  0.00000000E+00  0.00000000E+00
  0.00000000E+00  0.00000000E+00  0.00000000E+00
  0.00000000E+00  0.00000000E+00  0.00000000E+00
  0.00000000E+00  0.00000000E+00  0.00000000E+00
  0.00000000E+00  0.00000000E+00  0.00000000E+00
