Ti-pyrridine-N3_nh2                     
   1.00000000000000     
    12.4632727024999994    0.0000000000000000    0.0000000000000000
     0.0000000000000000   12.7976477116999998    0.0000000000000000
     0.0000000000000000    0.0000000000000000   19.8713392818999992
   C    N    Ti   H 
    55     4     1     2
Direct
  0.0522634925977866  0.0479654080676358  0.1552984351105143
  0.1529764772725636  0.1033974161314579  0.1560426549376463
  0.1526419082187878  0.2144617274070631  0.1572947165683359
  0.0525303364671432  0.2695822615077689  0.1569846297991004
  0.2532675007336869  0.0484559370180538  0.1561874763767611
  0.3534772907413000  0.1043024919239322  0.1576854921739776
  0.3529987309453531  0.2159769146676303  0.1591618842388663
  0.2522395080854724  0.2704230515653044  0.1590965355836778
  0.4537055137778749  0.0482865017396383  0.1584650670384313
  0.5531960323207745  0.1057978357440981  0.1597445672244246
  0.5536907387281762  0.2184713261269035  0.1618323304877785
  0.4525769154974743  0.2747828107929741  0.1621842038328787
  0.6516854580930331  0.0475532831037201  0.1580478849605719
  0.7516761539559491  0.1034392622752610  0.1569396180300041
  0.7525868738322503  0.2150481376232335  0.1579197605255784
  0.6546404734736964  0.2738391205389817  0.1612365766088383
  0.8517509932383168  0.0476975987061170  0.1557171804613062
  0.9521558853533406  0.1028292225607892  0.1556593383049627
  0.9526732775606572  0.2141689612215431  0.1564012714817817
  0.8534608146982409  0.2694876278325898  0.1573061046524037
  0.0520089337052988  0.3806342448973233  0.1574238514977943
  0.1505961023048110  0.4370242996157757  0.1588997241270900
  0.1501973606989230  0.5481883177631334  0.1584459967327361
  0.0516861265372530  0.6041215724286320  0.1568473920643904
  0.2499982603114185  0.3820915317511197  0.1605030259261281
  0.3483731049863381  0.4384362700536307  0.1627914739049910
  0.3468716660406382  0.5506114653645866  0.1624600471112445
  0.2489413551266904  0.6047715749523600  0.1596058220472965
  0.7553729176542029  0.4355755417044228  0.1596323495022347
  0.7554645088216625  0.5476493056860021  0.1589299267363943
  0.8543650521520496  0.3808068946302308  0.1578333575338747
  0.9532665848674785  0.4365247598418948  0.1571273018572090
  0.9531649390269106  0.5478038367928681  0.1569326079522599
  0.8541303276070903  0.6030397772842904  0.1572985095118391
  0.0517483982700385  0.7152398212555979  0.1560269607206998
  0.1515475173695348  0.7711168919969403  0.1561498577811733
  0.0521154294200894  0.9371390667859075  0.1549582553552070
  0.2505515254181209  0.7159136666625144  0.1579607765263051
  0.3516050305023929  0.7693274821723760  0.1582407845433513
  0.3530203483662913  0.8808494665682218  0.1569465821689670
  0.2531453166360199  0.9368233377111621  0.1558069399862233
  0.4496531985813542  0.7094320152484304  0.1617245909584848
  0.5519376765823494  0.7640144051360898  0.1608677170333317
  0.5522302233260290  0.8775173574314109  0.1591748985469026
  0.4535785637782271  0.9360841419128094  0.1581272167223603
  0.6535637034412329  0.7087886835026537  0.1596847417197678
  0.7519331203887560  0.7683818000729074  0.1568421162541318
  0.7512205659965198  0.8798112405770501  0.1563286263674161
  0.6512716028664297  0.9353186753750539  0.1577482572370376
  0.8527839249424075  0.7142904571357341  0.1563695041832526
  0.9521486372935897  0.7701492813599858  0.1555707662950715
  0.8515091173191558  0.9361160388086257  0.1553847452989110
  0.1524589328401390  0.8820631368735713  0.1553570897385287
  0.9518083450442254  0.8815072910515683  0.1550766702168808
  0.4480671380939105  0.3849570085266093  0.1657354924605250
  0.4441291472762615  0.6026385078910980  0.1657677108846395
  0.6586130827476655  0.3819113355491641  0.1640630693942808
  0.6582987096927087  0.6012603675649716  0.1616579022033873
  0.5474844139068938  0.4850464675389046  0.2990159051212159
  0.5545388922357503  0.4919501334958895  0.2027271653770961
  0.5906572640857031  0.5297112697038059  0.3319692118718088
  0.5012701381348388  0.4332402098643715  0.3252862632701214
 
  0.00000000E+00  0.00000000E+00  0.00000000E+00
  0.00000000E+00  0.00000000E+00  0.00000000E+00
  0.00000000E+00  0.00000000E+00  0.00000000E+00
  0.00000000E+00  0.00000000E+00  0.00000000E+00
  0.00000000E+00  0.00000000E+00  0.00000000E+00
  0.00000000E+00  0.00000000E+00  0.00000000E+00
  0.00000000E+00  0.00000000E+00  0.00000000E+00
  0.00000000E+00  0.00000000E+00  0.00000000E+00
  0.00000000E+00  0.00000000E+00  0.00000000E+00
  0.00000000E+00  0.00000000E+00  0.00000000E+00
  0.00000000E+00  0.00000000E+00  0.00000000E+00
  0.00000000E+00  0.00000000E+00  0.00000000E+00
  0.00000000E+00  0.00000000E+00  0.00000000E+00
  0.00000000E+00  0.00000000E+00  0.00000000E+00
  0.00000000E+00  0.00000000E+00  0.00000000E+00
  0.00000000E+00  0.00000000E+00  0.00000000E+00
  0.00000000E+00  0.00000000E+00  0.00000000E+00
  0.00000000E+00  0.00000000E+00  0.00000000E+00
  0.00000000E+00  0.00000000E+00  0.00000000E+00
  0.00000000E+00  0.00000000E+00  0.00000000E+00
  0.00000000E+00  0.00000000E+00  0.00000000E+00
  0.00000000E+00  0.00000000E+00  0.00000000E+00
  0.00000000E+00  0.00000000E+00  0.00000000E+00
  0.00000000E+00  0.00000000E+00  0.00000000E+00
  0.00000000E+00  0.00000000E+00  0.00000000E+00
  0.00000000E+00  0.00000000E+00  0.00000000E+00
  0.00000000E+00  0.00000000E+00  0.00000000E+00
  0.00000000E+00  0.00000000E+00  0.00000000E+00
  0.00000000E+00  0.00000000E+00  0.00000000E+00
  0.00000000E+00  0.00000000E+00  0.00000000E+00
  0.00000000E+00  0.00000000E+00  0.00000000E+00
  0.00000000E+00  0.00000000E+00  0.00000000E+00
  0.00000000E+00  0.00000000E+00  0.00000000E+00
  0.00000000E+00  0.00000000E+00  0.00000000E+00
  0.00000000E+00  0.00000000E+00  0.00000000E+00
  0.00000000E+00  0.00000000E+00  0.00000000E+00
  0.00000000E+00  0.00000000E+00  0.00000000E+00
  0.00000000E+00  0.00000000E+00  0.00000000E+00
  0.00000000E+00  0.00000000E+00  0.00000000E+00
  0.00000000E+00  0.00000000E+00  0.00000000E+00
  0.00000000E+00  0.00000000E+00  0.00000000E+00
  0.00000000E+00  0.00000000E+00  0.00000000E+00
  0.00000000E+00  0.00000000E+00  0.00000000E+00
  0.00000000E+00  0.00000000E+00  0.00000000E+00
  0.00000000E+00  0.00000000E+00  0.00000000E+00
  0.00000000E+00  0.00000000E+00  0.00000000E+00
  0.00000000E+00  0.00000000E+00  0.00000000E+00
  0.00000000E+00  0.00000000E+00  0.00000000E+00
  0.00000000E+00  0.00000000E+00  0.00000000E+00
  0.00000000E+00  0.00000000E+00  0.00000000E+00
  0.00000000E+00  0.00000000E+00  0.00000000E+00
  0.00000000E+00  0.00000000E+00  0.00000000E+00
  0.00000000E+00  0.00000000E+00  0.00000000E+00
  0.00000000E+00  0.00000000E+00  0.00000000E+00
  0.00000000E+00  0.00000000E+00  0.00000000E+00
  0.00000000E+00  0.00000000E+00  0.00000000E+00
  0.00000000E+00  0.00000000E+00  0.00000000E+00
  0.00000000E+00  0.00000000E+00  0.00000000E+00
  0.00000000E+00  0.00000000E+00  0.00000000E+00
  0.00000000E+00  0.00000000E+00  0.00000000E+00
  0.00000000E+00  0.00000000E+00  0.00000000E+00
  0.00000000E+00  0.00000000E+00  0.00000000E+00
