Cr-pyrridine-N3_nh2                     
   1.00000000000000     
    12.5147545434000005    0.0000000000000000    0.0000000000000000
     0.0000000000000000   12.8067380468999996    0.0000000000000000
     0.0000000000000000    0.0000000000000000   19.8713392818999992
   C    N    Cr   H 
    55     4     1     2
Direct
  0.0526300235046204  0.0479123142113507  0.1557866669208924
  0.1533429119691210  0.1032889859373064  0.1559606400187845
  0.1531759356535204  0.2144068171655271  0.1558699987806977
  0.0530079382819352  0.2693951650866866  0.1554835494503205
  0.2537738049217702  0.0485465699875529  0.1566739415725228
  0.3540964286004053  0.1045702313257276  0.1576092913053672
  0.3537242313215653  0.2166877944247303  0.1576312098516007
  0.2526848980336890  0.2703812247508374  0.1566623223146449
  0.4542122878896864  0.0484663507363163  0.1588805060444172
  0.5535502102975521  0.1062215060876859  0.1599737791750820
  0.5540887326021602  0.2196171842132409  0.1615332515164963
  0.4532087791980678  0.2761010112819053  0.1601370478010860
  0.6519250754917241  0.0477052502684603  0.1587865024868718
  0.7517972854177923  0.1036458246085446  0.1576474891187479
  0.7529573255021168  0.2156155302720076  0.1584368240711938
  0.6551438908534899  0.2749900472836773  0.1618447534044261
  0.8518474311869891  0.0476857142578143  0.1565103003784007
  0.9523925861123009  0.1025693730448784  0.1560812400404954
  0.9531326870229875  0.2139500106782398  0.1561271643297855
  0.8540495538892140  0.2693115673007261  0.1571355797021030
  0.0525009500450258  0.3805063102420711  0.1551390123568453
  0.1508309895404795  0.4369931992599086  0.1559083887794880
  0.1502492864374118  0.5482002735952001  0.1559132819177503
  0.0519971682021593  0.6041709115487258  0.1549029521529685
  0.2501451145221913  0.3820340962125602  0.1570119522194950
  0.3477870050361019  0.4386507204295927  0.1592018541063653
  0.3460666792181692  0.5503214653300781  0.1608148447649188
  0.2487127656259646  0.6047968944114132  0.1578154288528619
  0.7570744579249303  0.4357217210305933  0.1583995861984848
  0.7567783133294192  0.5473531852583164  0.1561869155310553
  0.8552344034036685  0.3806514837515219  0.1564452991971893
  0.9540057871363251  0.4364556020047350  0.1550984039124589
  0.9537486015523923  0.5477378597750374  0.1548324054269898
  0.8548503768740735  0.6029795368125501  0.1550497701162856
  0.0519792406917899  0.7153629739019602  0.1550837747945148
  0.1517300996082293  0.7711855980346289  0.1561093048167617
  0.0523545226337655  0.9371151166966953  0.1556871196088479
  0.2506528896235755  0.7159482928872429  0.1576679191429675
  0.3519135415686741  0.7688265745757169  0.1587277505080516
  0.3534905974368650  0.8806541035074326  0.1578546414024724
  0.2535436831170197  0.9367694339664712  0.1567898300466539
  0.4497461317009747  0.7083749291730790  0.1621050857100286
  0.5521948024467728  0.7626902121179505  0.1608671783902821
  0.5525345125220705  0.8768070665010606  0.1596642171456520
  0.4540256835438913  0.9357209340907855  0.1589443864043923
  0.6537607425972480  0.7071482043294042  0.1585000335310064
  0.7519868539524703  0.7674556804767440  0.1564901318395504
  0.7512004973987906  0.8793443185748004  0.1569381792013316
  0.6514238406226510  0.9349296391768163  0.1584698712773183
  0.8531084025978211  0.7142433160737170  0.1552194573056839
  0.9523248790297617  0.7702092011533658  0.1550542515385077
  0.8514634246911599  0.9359169057754455  0.1561631226926983
  0.1527352889812985  0.8821720792069118  0.1560740129567578
  0.9519971875082572  0.8815666044848942  0.1555208528154002
  0.4483591735556260  0.3871659069448138  0.1619015092652648
  0.4435939849422802  0.6010051021458616  0.1662073443757908
  0.6596907564394091  0.3838184069696209  0.1649880856492676
  0.6590081102020970  0.5988645171690560  0.1582061516576023
  0.5482102110607390  0.4884715315389444  0.2821466497576615
  0.5543100312343588  0.4916571442149345  0.1908932347233158
  0.6008322297629944  0.4486581507778083  0.3119673629008948
  0.4852490449120415  0.5154270689444956  0.3098791902544172
 
  0.00000000E+00  0.00000000E+00  0.00000000E+00
  0.00000000E+00  0.00000000E+00  0.00000000E+00
  0.00000000E+00  0.00000000E+00  0.00000000E+00
  0.00000000E+00  0.00000000E+00  0.00000000E+00
  0.00000000E+00  0.00000000E+00  0.00000000E+00
  0.00000000E+00  0.00000000E+00  0.00000000E+00
  0.00000000E+00  0.00000000E+00  0.00000000E+00
  0.00000000E+00  0.00000000E+00  0.00000000E+00
  0.00000000E+00  0.00000000E+00  0.00000000E+00
  0.00000000E+00  0.00000000E+00  0.00000000E+00
  0.00000000E+00  0.00000000E+00  0.00000000E+00
  0.00000000E+00  0.00000000E+00  0.00000000E+00
  0.00000000E+00  0.00000000E+00  0.00000000E+00
  0.00000000E+00  0.00000000E+00  0.00000000E+00
  0.00000000E+00  0.00000000E+00  0.00000000E+00
  0.00000000E+00  0.00000000E+00  0.00000000E+00
  0.00000000E+00  0.00000000E+00  0.00000000E+00
  0.00000000E+00  0.00000000E+00  0.00000000E+00
  0.00000000E+00  0.00000000E+00  0.00000000E+00
  0.00000000E+00  0.00000000E+00  0.00000000E+00
  0.00000000E+00  0.00000000E+00  0.00000000E+00
  0.00000000E+00  0.00000000E+00  0.00000000E+00
  0.00000000E+00  0.00000000E+00  0.00000000E+00
  0.00000000E+00  0.00000000E+00  0.00000000E+00
  0.00000000E+00  0.00000000E+00  0.00000000E+00
  0.00000000E+00  0.00000000E+00  0.00000000E+00
  0.00000000E+00  0.00000000E+00  0.00000000E+00
  0.00000000E+00  0.00000000E+00  0.00000000E+00
  0.00000000E+00  0.00000000E+00  0.00000000E+00
  0.00000000E+00  0.00000000E+00  0.00000000E+00
  0.00000000E+00  0.00000000E+00  0.00000000E+00
  0.00000000E+00  0.00000000E+00  0.00000000E+00
  0.00000000E+00  0.00000000E+00  0.00000000E+00
  0.00000000E+00  0.00000000E+00  0.00000000E+00
  0.00000000E+00  0.00000000E+00  0.00000000E+00
  0.00000000E+00  0.00000000E+00  0.00000000E+00
  0.00000000E+00  0.00000000E+00  0.00000000E+00
  0.00000000E+00  0.00000000E+00  0.00000000E+00
  0.00000000E+00  0.00000000E+00  0.00000000E+00
  0.00000000E+00  0.00000000E+00  0.00000000E+00
  0.00000000E+00  0.00000000E+00  0.00000000E+00
  0.00000000E+00  0.00000000E+00  0.00000000E+00
  0.00000000E+00  0.00000000E+00  0.00000000E+00
  0.00000000E+00  0.00000000E+00  0.00000000E+00
  0.00000000E+00  0.00000000E+00  0.00000000E+00
  0.00000000E+00  0.00000000E+00  0.00000000E+00
  0.00000000E+00  0.00000000E+00  0.00000000E+00
  0.00000000E+00  0.00000000E+00  0.00000000E+00
  0.00000000E+00  0.00000000E+00  0.00000000E+00
  0.00000000E+00  0.00000000E+00  0.00000000E+00
  0.00000000E+00  0.00000000E+00  0.00000000E+00
  0.00000000E+00  0.00000000E+00  0.00000000E+00
  0.00000000E+00  0.00000000E+00  0.00000000E+00
  0.00000000E+00  0.00000000E+00  0.00000000E+00
  0.00000000E+00  0.00000000E+00  0.00000000E+00
  0.00000000E+00  0.00000000E+00  0.00000000E+00
  0.00000000E+00  0.00000000E+00  0.00000000E+00
  0.00000000E+00  0.00000000E+00  0.00000000E+00
  0.00000000E+00  0.00000000E+00  0.00000000E+00
  0.00000000E+00  0.00000000E+00  0.00000000E+00
  0.00000000E+00  0.00000000E+00  0.00000000E+00
  0.00000000E+00  0.00000000E+00  0.00000000E+00
