Co-pyrridine-N2_nh2                     
   1.00000000000000     
    12.4979911512000008    0.0000000000000000    0.0000000000000000
     0.0000000000000000   12.7726042797999995    0.0000000000000000
     0.0000000000000000    0.0000000000000000   19.8713392818999992
   C    N    Co   H 
    56     3     1     2
Direct
  0.0526125350076603  0.0473685756182071  0.1597176515617962
  0.1528170133560196  0.1020331756191244  0.1592548262469108
  0.1521876276775535  0.2132148998707620  0.1589533276512544
  0.0524062497029300  0.2683289298888680  0.1586551685933499
  0.2537360535876663  0.0477001456963010  0.1588493600567895
  0.3537132049417701  0.1038674937804447  0.1587464540826631
  0.3528172847886978  0.2162735779996999  0.1586621406380451
  0.2513998369098767  0.2686561800071931  0.1586948139740013
  0.4539307723154609  0.0484182381385337  0.1591906598980768
  0.5534028870581258  0.1067882407666278  0.1594975983466284
  0.5534290471754867  0.2202176781477435  0.1598896274596384
  0.4520864699117222  0.2760805558826255  0.1601799092739557
  0.6521427023432512  0.0482297903511977  0.1592456777190510
  0.7521504416737667  0.1034318584871925  0.1591507846265602
  0.7533381294555247  0.2155627820059204  0.1582510245603824
  0.6553934428619589  0.2756123837010829  0.1587144008454914
  0.8520651456975440  0.0477093921117829  0.1597348166597417
  0.9524555560697812  0.1021043313269404  0.1597397592862951
  0.9530849193496433  0.2132804607757422  0.1589518097345711
  0.8537907604052140  0.2689214083983069  0.1579328580457862
  0.0515778463185350  0.3802801439412344  0.1580086855444137
  0.1494739414208121  0.4359718766780459  0.1583420390689294
  0.1494879395797132  0.5477684946918226  0.1583324012839232
  0.0515866203998531  0.6034556695897884  0.1579976774774215
  0.2478090538964036  0.3797910424176345  0.1587235055975285
  0.3441457967372410  0.4357524678199662  0.1601390959643515
  0.3441533989783261  0.5480021032564224  0.1601406044050252
  0.2478141302586246  0.6039678917683244  0.1587278334010563
  0.7568328928016331  0.4347800046321283  0.1558743635171919
  0.7568430680936377  0.5489705104257200  0.1558738919156764
  0.8551800222037569  0.3804473402174881  0.1565511412499699
  0.9535418595441595  0.4361414324571227  0.1571371737491596
  0.9535495672952700  0.5475970848935504  0.1571281573691425
  0.8551897793567731  0.6032973261631197  0.1565390154395294
  0.0524128411055060  0.7154126999865671  0.1586298022389528
  0.1521900675724369  0.7705465461353307  0.1589493353751308
  0.0526199675768393  0.9364117592586789  0.1597138737156780
  0.2514060338225776  0.7151095708705080  0.1586882845503508
  0.3528368755371878  0.7674676866963089  0.1586654207032479
  0.3537247016294937  0.8798741646515827  0.1587403734570846
  0.2537467989619041  0.9360488346916327  0.1588429216856553
  0.4521102448627542  0.7076545012236772  0.1601706358981929
  0.5534469094121580  0.7635284281902321  0.1598691821809075
  0.5534067901729854  0.8769540690029857  0.1594857701175350
  0.4539358657658858  0.9353273210558801  0.1591826582467885
  0.6554052182677189  0.7081282301002495  0.1586792427006025
  0.7533490276530480  0.7681671936178338  0.1581968967851159
  0.7521610945021230  0.8802955640833902  0.1591151112535182
  0.6521510429398193  0.9355045705976218  0.1592314185954065
  0.8538097451496320  0.7148182506779467  0.1578919404748513
  0.9531005267430678  0.7704772623607958  0.1589125255478670
  0.8520693264558836  0.9360176992927329  0.1597202065139670
  0.1528209035712224  0.8817329205706564  0.1592527483537579
  0.9524715279213759  0.8816507427380426  0.1597128913372636
  0.4451104413069917  0.3875414844610778  0.1624279413183014
  0.4451237312406021  0.5961985121019169  0.1624263583446664
  0.6610643911071480  0.3836342103161201  0.1579778414183296
  0.6610579295655875  0.6001089059366143  0.1579521078905611
  0.5459433669862156  0.4919364298099971  0.2655709371193501
  0.5520237647843663  0.4918921270776286  0.1747943211340065
  0.6140584078239357  0.4918773702021165  0.2941030619978759
  0.4781923153153509  0.4918981850348909  0.2941915684861991
 
  0.00000000E+00  0.00000000E+00  0.00000000E+00
  0.00000000E+00  0.00000000E+00  0.00000000E+00
  0.00000000E+00  0.00000000E+00  0.00000000E+00
  0.00000000E+00  0.00000000E+00  0.00000000E+00
  0.00000000E+00  0.00000000E+00  0.00000000E+00
  0.00000000E+00  0.00000000E+00  0.00000000E+00
  0.00000000E+00  0.00000000E+00  0.00000000E+00
  0.00000000E+00  0.00000000E+00  0.00000000E+00
  0.00000000E+00  0.00000000E+00  0.00000000E+00
  0.00000000E+00  0.00000000E+00  0.00000000E+00
  0.00000000E+00  0.00000000E+00  0.00000000E+00
  0.00000000E+00  0.00000000E+00  0.00000000E+00
  0.00000000E+00  0.00000000E+00  0.00000000E+00
  0.00000000E+00  0.00000000E+00  0.00000000E+00
  0.00000000E+00  0.00000000E+00  0.00000000E+00
  0.00000000E+00  0.00000000E+00  0.00000000E+00
  0.00000000E+00  0.00000000E+00  0.00000000E+00
  0.00000000E+00  0.00000000E+00  0.00000000E+00
  0.00000000E+00  0.00000000E+00  0.00000000E+00
  0.00000000E+00  0.00000000E+00  0.00000000E+00
  0.00000000E+00  0.00000000E+00  0.00000000E+00
  0.00000000E+00  0.00000000E+00  0.00000000E+00
  0.00000000E+00  0.00000000E+00  0.00000000E+00
  0.00000000E+00  0.00000000E+00  0.00000000E+00
  0.00000000E+00  0.00000000E+00  0.00000000E+00
  0.00000000E+00  0.00000000E+00  0.00000000E+00
  0.00000000E+00  0.00000000E+00  0.00000000E+00
  0.00000000E+00  0.00000000E+00  0.00000000E+00
  0.00000000E+00  0.00000000E+00  0.00000000E+00
  0.00000000E+00  0.00000000E+00  0.00000000E+00
  0.00000000E+00  0.00000000E+00  0.00000000E+00
  0.00000000E+00  0.00000000E+00  0.00000000E+00
  0.00000000E+00  0.00000000E+00  0.00000000E+00
  0.00000000E+00  0.00000000E+00  0.00000000E+00
  0.00000000E+00  0.00000000E+00  0.00000000E+00
  0.00000000E+00  0.00000000E+00  0.00000000E+00
  0.00000000E+00  0.00000000E+00  0.00000000E+00
  0.00000000E+00  0.00000000E+00  0.00000000E+00
  0.00000000E+00  0.00000000E+00  0.00000000E+00
  0.00000000E+00  0.00000000E+00  0.00000000E+00
  0.00000000E+00  0.00000000E+00  0.00000000E+00
  0.00000000E+00  0.00000000E+00  0.00000000E+00
  0.00000000E+00  0.00000000E+00  0.00000000E+00
  0.00000000E+00  0.00000000E+00  0.00000000E+00
  0.00000000E+00  0.00000000E+00  0.00000000E+00
  0.00000000E+00  0.00000000E+00  0.00000000E+00
  0.00000000E+00  0.00000000E+00  0.00000000E+00
  0.00000000E+00  0.00000000E+00  0.00000000E+00
  0.00000000E+00  0.00000000E+00  0.00000000E+00
  0.00000000E+00  0.00000000E+00  0.00000000E+00
  0.00000000E+00  0.00000000E+00  0.00000000E+00
  0.00000000E+00  0.00000000E+00  0.00000000E+00
  0.00000000E+00  0.00000000E+00  0.00000000E+00
  0.00000000E+00  0.00000000E+00  0.00000000E+00
  0.00000000E+00  0.00000000E+00  0.00000000E+00
  0.00000000E+00  0.00000000E+00  0.00000000E+00
  0.00000000E+00  0.00000000E+00  0.00000000E+00
  0.00000000E+00  0.00000000E+00  0.00000000E+00
  0.00000000E+00  0.00000000E+00  0.00000000E+00
  0.00000000E+00  0.00000000E+00  0.00000000E+00
  0.00000000E+00  0.00000000E+00  0.00000000E+00
  0.00000000E+00  0.00000000E+00  0.00000000E+00
