Fe-N3-pyrrole_nh2                       
   1.00000000000000     
     8.4143994776000000    0.0097696782000000    0.0000132263000000
     0.0097551042000000    8.4145815505999995   -0.0000582376000000
     0.0000328437000000   -0.0001379950000000   19.8361919944999983
   C    N    Fe   H 
    21     4     1     2
Direct
  0.4984880266071488  0.0864201984508473  0.1559180857108856
  0.3521182029221723  0.1697612146819867  0.1560323721231962
  0.6429432020428718  0.1704612280906914  0.1549677520302772
  0.7959125324179519  0.9231484300058687  0.1536850865972521
  0.7934219175756028  0.0871649442645371  0.1534447841549982
  0.9177598301055835  0.2129068521636104  0.1527853240692513
  0.8343341428991561  0.3624793873022611  0.1534197843516503
  0.2037134420807312  0.0876800534100253  0.1544120860661146
  0.0824930902334930  0.2109832508202271  0.1531504654197459
  0.1697552919401013  0.3597017888304042  0.1539701548779583
  0.0881373438121229  0.5071501700219675  0.1533350904246062
  0.1681403040452109  0.6541447723000584  0.1534570658534680
  0.3523813628140451  0.8356195234456489  0.1543952166190422
  0.2022729611043485  0.9223652418131116  0.1542504814175880
  0.0832487222956884  0.8030047625414248  0.1539567332640482
  0.6455228495212121  0.8342398828944992  0.1543421093073364
  0.8355514215820357  0.6542635104737291  0.1536092380525750
  0.9175074211902794  0.8019629810696295  0.1537475267848310
  0.4985550588025016  0.9162460849945834  0.1552291513672689
  0.9180422624231923  0.5072463984203137  0.1532945920588790
  0.6637267594802038  0.3406511449451061  0.1562370414550528
  0.3323265021268394  0.3351434564496198  0.1561669412825779
  0.3302181561420040  0.6752448232878604  0.1532166861702063
  0.6703478775212134  0.6741203340776659  0.1539567299537904
  0.5099999809974761  0.4892875458996267  0.2579152563872529
  0.5030279209338212  0.4952879376849468  0.1665398275061772
  0.5941829215360275  0.4180265142245916  0.2798671100748105
  0.4006977390198431  0.4600798689286590  0.2773455787534599
 
  0.00000000E+00  0.00000000E+00  0.00000000E+00
  0.00000000E+00  0.00000000E+00  0.00000000E+00
  0.00000000E+00  0.00000000E+00  0.00000000E+00
  0.00000000E+00  0.00000000E+00  0.00000000E+00
  0.00000000E+00  0.00000000E+00  0.00000000E+00
  0.00000000E+00  0.00000000E+00  0.00000000E+00
  0.00000000E+00  0.00000000E+00  0.00000000E+00
  0.00000000E+00  0.00000000E+00  0.00000000E+00
  0.00000000E+00  0.00000000E+00  0.00000000E+00
  0.00000000E+00  0.00000000E+00  0.00000000E+00
  0.00000000E+00  0.00000000E+00  0.00000000E+00
  0.00000000E+00  0.00000000E+00  0.00000000E+00
  0.00000000E+00  0.00000000E+00  0.00000000E+00
  0.00000000E+00  0.00000000E+00  0.00000000E+00
  0.00000000E+00  0.00000000E+00  0.00000000E+00
  0.00000000E+00  0.00000000E+00  0.00000000E+00
  0.00000000E+00  0.00000000E+00  0.00000000E+00
  0.00000000E+00  0.00000000E+00  0.00000000E+00
  0.00000000E+00  0.00000000E+00  0.00000000E+00
  0.00000000E+00  0.00000000E+00  0.00000000E+00
  0.00000000E+00  0.00000000E+00  0.00000000E+00
  0.00000000E+00  0.00000000E+00  0.00000000E+00
  0.00000000E+00  0.00000000E+00  0.00000000E+00
  0.00000000E+00  0.00000000E+00  0.00000000E+00
  0.00000000E+00  0.00000000E+00  0.00000000E+00
  0.00000000E+00  0.00000000E+00  0.00000000E+00
  0.00000000E+00  0.00000000E+00  0.00000000E+00
  0.00000000E+00  0.00000000E+00  0.00000000E+00
