Cr-pyrridine-N2-diagonal_nh2            
   1.00000000000000     
    12.5423884411000000    0.0000000000000000    0.0000000000000000
     0.0000000000000000   12.8266673612000002    0.0000000000000000
     0.0000000000000000    0.0000000000000000   19.8713392818999992
   C    N    Cr   H 
    56     3     1     2
Direct
  0.0518898947448791  0.0473458255154364  0.1581780931252453
  0.1518212924177817  0.1016354436603824  0.1580566279473899
  0.1505979998492381  0.2125852306215816  0.1575966666134748
  0.0511940810650204  0.2684458637545025  0.1564481044894336
  0.2525694952975176  0.0468455599217637  0.1581596887604576
  0.3522755898890184  0.1023149934116985  0.1584113864158879
  0.3505453358430114  0.2142686177027820  0.1589956298233068
  0.2497161491945815  0.2675458484728424  0.1580687046361794
  0.4526709377081568  0.0473471713848905  0.1585491219409486
  0.5510655875536342  0.1063215312157345  0.1588710480162473
  0.5504035227698282  0.2193335762744958  0.1599630263530701
  0.4482414407474140  0.2738880354089321  0.1616165897694402
  0.6509496122045669  0.0489382830276774  0.1582259268546850
  0.7509949748911586  0.1043324357246927  0.1575858584516710
  0.7512932161449811  0.2164204188775541  0.1564599594208417
  0.6517946372071457  0.2753557956190079  0.1575972201280995
  0.8512028204956321  0.0483650526496993  0.1579621226734424
  0.9515570765219591  0.1028407576482193  0.1577917744685416
  0.9515158971215804  0.2139780281952548  0.1567008293156452
  0.8519481042982394  0.2701573922862766  0.1556942042465549
  0.0517279363740524  0.3803240945004537  0.1552999391667511
  0.1500047861172055  0.4356261857706665  0.1554251562215451
  0.1506094178714044  0.5471088875186705  0.1550964164860331
  0.0526373854930806  0.6034211988598756  0.1553552739307428
  0.2481907735373347  0.3787123170229232  0.1570282642634142
  0.3457889680149988  0.4326183722250067  0.1592608491415129
  0.3473435013435970  0.5457976251049359  0.1564944772599615
  0.2496813501336263  0.6020056190423467  0.1552425492136431
  0.7570618071593425  0.4379712962710255  0.1565297557149132
  0.7586034148475661  0.5511536101953323  0.1593264936775393
  0.8547080002935544  0.3817315123349976  0.1552882501053656
  0.9537476838573123  0.4366308129699246  0.1551537144622855
  0.9543592786572203  0.5481251720326764  0.1555397432889733
  0.8562018503402741  0.6050601327809400  0.1571587025465460
  0.0531982903962727  0.7153198297828262  0.1565410403926338
  0.1528925201587913  0.7697660021436168  0.1567480853975808
  0.0524922625225877  0.9364066305392250  0.1582465698298400
  0.2524474888072607  0.7135593656126008  0.1557091169060809
  0.3531407949625341  0.7672984957417247  0.1564256980015840
  0.3534040316113118  0.8793916147745876  0.1575060196567928
  0.2532030912754864  0.9353705109787357  0.1578598377369859
  0.4526545251508493  0.7083952771051290  0.1575897141774072
  0.5540356970712469  0.7644343117264052  0.1600328981706156
  0.5533370865777498  0.8774312662608500  0.1589224789053296
  0.4534511070856604  0.9347858138684075  0.1581724232529255
  0.6561880443101519  0.7098722721309562  0.1617147628381483
  0.7538657055285211  0.7694800009833302  0.1591326901383538
  0.7521324437272041  0.8814202587893192  0.1585472990004146
  0.6517329701079189  0.9364002228477925  0.1586442104949497
  0.8546766417959579  0.7162189010343319  0.1582357954283721
  0.9538001784895506  0.7711532377893683  0.1577493565437710
  0.8518366640882513  0.9368863331529591  0.1583338155430012
  0.1528371155184201  0.8809014094215951  0.1578010097973943
  0.9525637573100505  0.8820935864841286  0.1582283830520856
  0.4465397708309609  0.5976365413597287  0.1575831700003338
  0.6579091588359488  0.3861191193851966  0.1575863699965792
  0.4418474776133471  0.3816011225643478  0.1651429610790176
  0.6625737893081464  0.6021594363170744  0.1651958728220990
  0.5522380880251299  0.4919019171196523  0.2798069263668456
  0.5522109081393172  0.4918740824426212  0.1880541351316754
  0.5991798181697179  0.5386255385651659  0.3089759350293338
  0.5052733854024555  0.4451953451336285  0.3089725611301834
 
  0.00000000E+00  0.00000000E+00  0.00000000E+00
  0.00000000E+00  0.00000000E+00  0.00000000E+00
  0.00000000E+00  0.00000000E+00  0.00000000E+00
  0.00000000E+00  0.00000000E+00  0.00000000E+00
  0.00000000E+00  0.00000000E+00  0.00000000E+00
  0.00000000E+00  0.00000000E+00  0.00000000E+00
  0.00000000E+00  0.00000000E+00  0.00000000E+00
  0.00000000E+00  0.00000000E+00  0.00000000E+00
  0.00000000E+00  0.00000000E+00  0.00000000E+00
  0.00000000E+00  0.00000000E+00  0.00000000E+00
  0.00000000E+00  0.00000000E+00  0.00000000E+00
  0.00000000E+00  0.00000000E+00  0.00000000E+00
  0.00000000E+00  0.00000000E+00  0.00000000E+00
  0.00000000E+00  0.00000000E+00  0.00000000E+00
  0.00000000E+00  0.00000000E+00  0.00000000E+00
  0.00000000E+00  0.00000000E+00  0.00000000E+00
  0.00000000E+00  0.00000000E+00  0.00000000E+00
  0.00000000E+00  0.00000000E+00  0.00000000E+00
  0.00000000E+00  0.00000000E+00  0.00000000E+00
  0.00000000E+00  0.00000000E+00  0.00000000E+00
  0.00000000E+00  0.00000000E+00  0.00000000E+00
  0.00000000E+00  0.00000000E+00  0.00000000E+00
  0.00000000E+00  0.00000000E+00  0.00000000E+00
  0.00000000E+00  0.00000000E+00  0.00000000E+00
  0.00000000E+00  0.00000000E+00  0.00000000E+00
  0.00000000E+00  0.00000000E+00  0.00000000E+00
  0.00000000E+00  0.00000000E+00  0.00000000E+00
  0.00000000E+00  0.00000000E+00  0.00000000E+00
  0.00000000E+00  0.00000000E+00  0.00000000E+00
  0.00000000E+00  0.00000000E+00  0.00000000E+00
  0.00000000E+00  0.00000000E+00  0.00000000E+00
  0.00000000E+00  0.00000000E+00  0.00000000E+00
  0.00000000E+00  0.00000000E+00  0.00000000E+00
  0.00000000E+00  0.00000000E+00  0.00000000E+00
  0.00000000E+00  0.00000000E+00  0.00000000E+00
  0.00000000E+00  0.00000000E+00  0.00000000E+00
  0.00000000E+00  0.00000000E+00  0.00000000E+00
  0.00000000E+00  0.00000000E+00  0.00000000E+00
  0.00000000E+00  0.00000000E+00  0.00000000E+00
  0.00000000E+00  0.00000000E+00  0.00000000E+00
  0.00000000E+00  0.00000000E+00  0.00000000E+00
  0.00000000E+00  0.00000000E+00  0.00000000E+00
  0.00000000E+00  0.00000000E+00  0.00000000E+00
  0.00000000E+00  0.00000000E+00  0.00000000E+00
  0.00000000E+00  0.00000000E+00  0.00000000E+00
  0.00000000E+00  0.00000000E+00  0.00000000E+00
  0.00000000E+00  0.00000000E+00  0.00000000E+00
  0.00000000E+00  0.00000000E+00  0.00000000E+00
  0.00000000E+00  0.00000000E+00  0.00000000E+00
  0.00000000E+00  0.00000000E+00  0.00000000E+00
  0.00000000E+00  0.00000000E+00  0.00000000E+00
  0.00000000E+00  0.00000000E+00  0.00000000E+00
  0.00000000E+00  0.00000000E+00  0.00000000E+00
  0.00000000E+00  0.00000000E+00  0.00000000E+00
  0.00000000E+00  0.00000000E+00  0.00000000E+00
  0.00000000E+00  0.00000000E+00  0.00000000E+00
  0.00000000E+00  0.00000000E+00  0.00000000E+00
  0.00000000E+00  0.00000000E+00  0.00000000E+00
  0.00000000E+00  0.00000000E+00  0.00000000E+00
  0.00000000E+00  0.00000000E+00  0.00000000E+00
  0.00000000E+00  0.00000000E+00  0.00000000E+00
  0.00000000E+00  0.00000000E+00  0.00000000E+00
