Mn-pyrridine-N2_nh2                     
   1.00000000000000     
    12.5123681485000002    0.0000000000000000    0.0000000000000000
     0.0000000000000000   12.8166994476999996    0.0000000000000000
     0.0000000000000000    0.0000000000000000   19.8713392818999992
   C    N    Mn   H 
    56     3     1     2
Direct
  0.0535202666984158  0.0457831915070008  0.1583640330647695
  0.1537033312516133  0.1006714876418720  0.1589192731979674
  0.1531894852250756  0.2116618768306949  0.1586838586945411
  0.0534479882027856  0.2669491859359813  0.1575587845307191
  0.2543875226228381  0.0460676164114294  0.1589637515342739
  0.3543709802528511  0.1017805032592405  0.1599888465263468
  0.3534611652453480  0.2137191842214521  0.1610032908363139
  0.2524896359195462  0.2670938756982504  0.1596594350236078
  0.4549883284516020  0.0466299092089534  0.1600844628765702
  0.5545715738290030  0.1047215686881174  0.1608465615593169
  0.5546816061271915  0.2177095801367216  0.1631132307788597
  0.4527036657621852  0.2727993688562776  0.1644549964756674
  0.6533839168065929  0.0465336703622638  0.1590982544168170
  0.7533283449782092  0.1018149915215090  0.1585542033526158
  0.7544057358444790  0.2137038890536323  0.1587763097509143
  0.6564696275222373  0.2731194997803825  0.1614387364820367
  0.8532910184072711  0.0461717476580165  0.1578408316957075
  0.9536004260506515  0.1007275180407231  0.1582824454215282
  0.9540906627017972  0.2119084944813128  0.1577886538056519
  0.8548457940365587  0.2675294891342353  0.1575029335912228
  0.0527744640428792  0.3786911072496343  0.1560157253185196
  0.1507437237038571  0.4345165591690450  0.1564668632965898
  0.1507590930166714  0.5461535132503926  0.1554195958965495
  0.0527668635481683  0.6018691577167872  0.1542906647305785
  0.2492038482258691  0.3783556128629493  0.1592150750811738
  0.3459997559641628  0.4339813376513116  0.1626827690902717
  0.3459626137082203  0.5467594412743610  0.1607162749661971
  0.2492413061791174  0.6023594944727947  0.1566859490608438
  0.7576785773952046  0.4334519267536314  0.1576463420825641
  0.7578299831334172  0.5472652468693028  0.1567129187325649
  0.8560846807912768  0.3790428357118913  0.1561082624201037
  0.9546539214878509  0.4346289040979651  0.1549906445932051
  0.9546743828206357  0.5459690730994995  0.1542023700457527
  0.8562009446738914  0.6016725545815231  0.1545995967575158
  0.0534548475163154  0.7136339537228463  0.1548319578106238
  0.1531321091816991  0.7690454337259575  0.1556222088488631
  0.0535346646038499  0.9349018649621161  0.1573628298428476
  0.2524558001616567  0.7136284763657413  0.1561051922976053
  0.3533746017151409  0.7670286292365420  0.1572726922525306
  0.3543903288097709  0.8789198913589690  0.1577763362283535
  0.2544215588110633  0.9346985346100944  0.1577986254828320
  0.4526849965570929  0.7080436426199743  0.1601984895359471
  0.5547102595315790  0.7631738624595837  0.1597720348037904
  0.5545756175478529  0.8760961033317677  0.1589183385108261
  0.4549883617460311  0.9340991779734840  0.1590106061686747
  0.6565529141394009  0.7078214794548505  0.1586253791816699
  0.7545304145043348  0.7670940053706067  0.1563054536100676
  0.7534169157229536  0.8789169363100712  0.1568336139100668
  0.6534485231139836  0.9341491655624130  0.1581659429476330
  0.8549287282405690  0.7131961341512774  0.1550530639407973
  0.9541522951685029  0.7687756413967547  0.1551648689837536
  0.8533176038419877  0.9346545664027810  0.1569165444835793
  0.1537454658471310  0.8800487926530619  0.1569034502600929
  0.9536232241297457  0.8799888346934308  0.1564696485911438
  0.4456510101170972  0.3831818866081454  0.1680201404847448
  0.4454676812651374  0.5978814450020384  0.1637545217569961
  0.6620272331295488  0.3810377403993017  0.1622357224243028
  0.6622665229497604  0.5999634192337445  0.1598042454073247
  0.5476026304847871  0.5107411195350766  0.2777743076759412
  0.5534936675275840  0.4915741462592716  0.1841700405520725
  0.5336028930829627  0.5866460016451319  0.2917366585145849
  0.4933071983869861  0.4655225244887900  0.3031268991881427
 
  0.00000000E+00  0.00000000E+00  0.00000000E+00
  0.00000000E+00  0.00000000E+00  0.00000000E+00
  0.00000000E+00  0.00000000E+00  0.00000000E+00
  0.00000000E+00  0.00000000E+00  0.00000000E+00
  0.00000000E+00  0.00000000E+00  0.00000000E+00
  0.00000000E+00  0.00000000E+00  0.00000000E+00
  0.00000000E+00  0.00000000E+00  0.00000000E+00
  0.00000000E+00  0.00000000E+00  0.00000000E+00
  0.00000000E+00  0.00000000E+00  0.00000000E+00
  0.00000000E+00  0.00000000E+00  0.00000000E+00
  0.00000000E+00  0.00000000E+00  0.00000000E+00
  0.00000000E+00  0.00000000E+00  0.00000000E+00
  0.00000000E+00  0.00000000E+00  0.00000000E+00
  0.00000000E+00  0.00000000E+00  0.00000000E+00
  0.00000000E+00  0.00000000E+00  0.00000000E+00
  0.00000000E+00  0.00000000E+00  0.00000000E+00
  0.00000000E+00  0.00000000E+00  0.00000000E+00
  0.00000000E+00  0.00000000E+00  0.00000000E+00
  0.00000000E+00  0.00000000E+00  0.00000000E+00
  0.00000000E+00  0.00000000E+00  0.00000000E+00
  0.00000000E+00  0.00000000E+00  0.00000000E+00
  0.00000000E+00  0.00000000E+00  0.00000000E+00
  0.00000000E+00  0.00000000E+00  0.00000000E+00
  0.00000000E+00  0.00000000E+00  0.00000000E+00
  0.00000000E+00  0.00000000E+00  0.00000000E+00
  0.00000000E+00  0.00000000E+00  0.00000000E+00
  0.00000000E+00  0.00000000E+00  0.00000000E+00
  0.00000000E+00  0.00000000E+00  0.00000000E+00
  0.00000000E+00  0.00000000E+00  0.00000000E+00
  0.00000000E+00  0.00000000E+00  0.00000000E+00
  0.00000000E+00  0.00000000E+00  0.00000000E+00
  0.00000000E+00  0.00000000E+00  0.00000000E+00
  0.00000000E+00  0.00000000E+00  0.00000000E+00
  0.00000000E+00  0.00000000E+00  0.00000000E+00
  0.00000000E+00  0.00000000E+00  0.00000000E+00
  0.00000000E+00  0.00000000E+00  0.00000000E+00
  0.00000000E+00  0.00000000E+00  0.00000000E+00
  0.00000000E+00  0.00000000E+00  0.00000000E+00
  0.00000000E+00  0.00000000E+00  0.00000000E+00
  0.00000000E+00  0.00000000E+00  0.00000000E+00
  0.00000000E+00  0.00000000E+00  0.00000000E+00
  0.00000000E+00  0.00000000E+00  0.00000000E+00
  0.00000000E+00  0.00000000E+00  0.00000000E+00
  0.00000000E+00  0.00000000E+00  0.00000000E+00
  0.00000000E+00  0.00000000E+00  0.00000000E+00
  0.00000000E+00  0.00000000E+00  0.00000000E+00
  0.00000000E+00  0.00000000E+00  0.00000000E+00
  0.00000000E+00  0.00000000E+00  0.00000000E+00
  0.00000000E+00  0.00000000E+00  0.00000000E+00
  0.00000000E+00  0.00000000E+00  0.00000000E+00
  0.00000000E+00  0.00000000E+00  0.00000000E+00
  0.00000000E+00  0.00000000E+00  0.00000000E+00
  0.00000000E+00  0.00000000E+00  0.00000000E+00
  0.00000000E+00  0.00000000E+00  0.00000000E+00
  0.00000000E+00  0.00000000E+00  0.00000000E+00
  0.00000000E+00  0.00000000E+00  0.00000000E+00
  0.00000000E+00  0.00000000E+00  0.00000000E+00
  0.00000000E+00  0.00000000E+00  0.00000000E+00
  0.00000000E+00  0.00000000E+00  0.00000000E+00
  0.00000000E+00  0.00000000E+00  0.00000000E+00
  0.00000000E+00  0.00000000E+00  0.00000000E+00
  0.00000000E+00  0.00000000E+00  0.00000000E+00
