Fe-COF-366_nh2                          
   1.00000000000000     
    26.3296677563000010    0.0000000000000000    0.0000000000000000
     0.0000000000000000   26.3326448633000005    0.0000000000000000
     0.0000000000000000    0.0000000000000000   25.0000000000000000
   C    N    H    Fe
    60     9    34     1
Direct
  0.2529142108069354  0.1973605045990754  0.2014804869384523
  0.2048383953092478  0.1723122048775151  0.1932140710261930
  0.1683233632058536  0.2088385537128695  0.1932597974318509
  0.1934730858053954  0.2568484043537131  0.2017004524232080
  0.3460162903934267  0.1973032551449607  0.2043060264320516
  0.3940162767184094  0.1720753555836549  0.2104124353834591
  0.4054623880673904  0.2567137865789426  0.2039775962723865
  0.4306951809972295  0.2087252673813870  0.2102283782604903
  0.2533228500832364  0.4095019638516291  0.2068426388775364
  0.1937166409412794  0.3498985864210790  0.2063801444054208
  0.2052679854102731  0.4345894609149065  0.2125347410427512
  0.1685675413820120  0.3978986982482733  0.2122311499916402
  0.4055570984381832  0.3499186393412585  0.2009865101048363
  0.4307373117346591  0.3979871197397735  0.1930719753025307
  0.3463174081826576  0.4096229453032636  0.2021502489523175
  0.3943878037957805  0.4346693873220200  0.1938408807703107
  0.2999170876639491  0.4356448533692545  0.2044510687571581
  0.1676057907282599  0.3033230741705648  0.2036058463489361
  0.2993369097537852  0.1713086433000380  0.2027464913846332
  0.2998220321399114  0.1142795081822006  0.2001951180813400
  0.3268362222585864  0.0889543975950996  0.1594269924520539
  0.2735691944786917  0.0832088934443447  0.2369094881064646
  0.3268801219202694  0.0362640675033514  0.1550143699087547
  0.2737944205864819  0.0301195731178818  0.2333584391800622
  0.3004786221562598  0.0055412375294789  0.1918877979436185
  0.4314116121570579  0.3033979686041261  0.2020893128089271
  0.2993091378324064  0.4927496605149623  0.2014801097618241
  0.4884400384200471  0.3028708518846003  0.1994397664319782
  0.1105231717411671  0.3039435255094307  0.2003704589766740
  0.2724167807001379  0.5175832067806684  0.1603019772437941
  0.5138545859468352  0.2757812207858359  0.1587763585184519
  0.0855842804686001  0.3310281051898832  0.1593675567120348
  0.3253131019339148  0.5243481728646184  0.2378987790188636
  0.5194778731430691  0.3292506669268797  0.2361081442603833
  0.0789642376737598  0.2777013539487183  0.2366531116029900
  0.2722039703808306  0.5702383363737463  0.1552201589505707
  0.5665823907872833  0.2757347628663375  0.1544703403923916
  0.0328712996853314  0.3314141629111371  0.1545268004474365
  0.3249164970213930  0.5774296493518923  0.2336910332628392
  0.5725700738150901  0.3290989972227192  0.2325946206351631
  0.0258778313790668  0.2782015256613444  0.2326142654053885
  0.2983212008913712  0.6014923218301438  0.1918313034012416
  0.5972685259249477  0.3022802679895087  0.1912971839581633
  0.0016492743804322  0.3051696356877837  0.1911114238401739
  0.6922459306590684  0.3045565170998684  0.2002567013737151
  0.9066924527287218  0.3030928622682215  0.1997498715445070
  0.3001480611450980  0.6963541830875384  0.2003235431309139
  0.2985550014407505  0.9106370375530662  0.2007949273440201
  0.7437657254529915  0.3047543900179611  0.2052105929713269
  0.7728482001168340  0.2576193866743522  0.2075031508593329
  0.7742311455155889  0.3509316875090788  0.2073902454503132
  0.8246927817643911  0.2566853242532510  0.2076065524658072
  0.8260691851760628  0.3499860846336359  0.2068888427368644
  0.8551748137513856  0.3028488398883906  0.2047942145306132
  0.3002904800138037  0.7478841109955582  0.2050203101419780
  0.3465073144371035  0.7782818731417630  0.2072214264908775
  0.2531439610455833  0.7769402143642612  0.2070993458848230
  0.3456061731942081  0.8301039036458344  0.2070975191765291
  0.2522351658385423  0.8287577361896004  0.2076288903810201
  0.2984427350498834  0.8591225425172581  0.2054237549724701
  0.2459684435754687  0.2498421620509345  0.2056539672340960
  0.2462752264551376  0.3569475466594478  0.2036964221921179
  0.3531216411839943  0.2496253341684289  0.2008195642947277
  0.3531487816924931  0.3570527569417941  0.2054054426671304
  0.6495544338247924  0.3033192597790134  0.1808695162612250
  0.9493880786592604  0.3043589733158047  0.1802328567490611
  0.2990704071755995  0.6537133299939261  0.1806442945067261
  0.2994903849423652  0.9532943997532449  0.1812766657164251
  0.3006870584771296  0.3032896427471148  0.2843192367698418
  0.2003199731687802  0.1318232865442030  0.1865419384175680
  0.1278533227228455  0.2043677014239844  0.1866153552378280
  0.3988741736964536  0.1313862877239141  0.2151826484122910
  0.4713814383354265  0.2038333478804346  0.2148569855092888
  0.2003334875004543  0.4753423430177527  0.2166347258197508
  0.1277863996519840  0.4027677948252491  0.2160166520256693
  0.4711637588076829  0.4024036012691808  0.1862128721063692
  0.3990297862932823  0.4752384315288193  0.1878201409238636
  0.3472286753813005  0.1112996906388571  0.1296128476370376
  0.2526302803946788  0.1011663442037213  0.2695163098743561
  0.3468206402540054  0.0178216620898407  0.1220742027703483
  0.2530213729989009  0.0075608825792870  0.2627523048157279
  0.2522337108760327  0.4948057634578921  0.1306948557670936
  0.4915284444073353  0.2552990450977860  0.1290005161810737
  0.1083247015766267  0.3512395355251341  0.1297240943080054
  0.3462791847284425  0.5068256421114614  0.2707689709829868
  0.5014289182609266  0.3502634003812590  0.2685943996783333
  0.0965728726746974  0.2564685720139358  0.2692737720930965
  0.2523264433488316  0.5881409213931262  0.1219145476753436
  0.5850198094746744  0.2557229484659306  0.1215645563843753
  0.0149519532522084  0.3515087066911022  0.1213573425064521
  0.3455930443822164  0.6003424868149684  0.2628491639983571
  0.5950073578929144  0.3500738315239307  0.2619055715909366
  0.0030371308579948  0.2573191643321223  0.2616471245034641
  0.7520605867225653  0.2217346117044737  0.2081513117926533
  0.7548353979500625  0.3875824801654469  0.2081177010024869
  0.8440452723115158  0.2200258306820347  0.2085503970528796
  0.8468251599756051  0.3858786846516672  0.2070968777755523
  0.3831355587725390  0.7588643393321843  0.2074644311390608
  0.2172462351682287  0.7562108843018518  0.2070798262953174
  0.3814765525125788  0.8508996591974621  0.2070546720810409
  0.2156387088368497  0.8482433308422793  0.2082121829563985
  0.3112668909690779  0.3372868562214105  0.3008798941403340
  0.2677146869051971  0.2906716200453140  0.3015980441039763
  0.2996371118673422  0.3034368421904656  0.2120074941224675
 
  0.00000000E+00  0.00000000E+00  0.00000000E+00
  0.00000000E+00  0.00000000E+00  0.00000000E+00
  0.00000000E+00  0.00000000E+00  0.00000000E+00
  0.00000000E+00  0.00000000E+00  0.00000000E+00
  0.00000000E+00  0.00000000E+00  0.00000000E+00
  0.00000000E+00  0.00000000E+00  0.00000000E+00
  0.00000000E+00  0.00000000E+00  0.00000000E+00
  0.00000000E+00  0.00000000E+00  0.00000000E+00
  0.00000000E+00  0.00000000E+00  0.00000000E+00
  0.00000000E+00  0.00000000E+00  0.00000000E+00
  0.00000000E+00  0.00000000E+00  0.00000000E+00
  0.00000000E+00  0.00000000E+00  0.00000000E+00
  0.00000000E+00  0.00000000E+00  0.00000000E+00
  0.00000000E+00  0.00000000E+00  0.00000000E+00
  0.00000000E+00  0.00000000E+00  0.00000000E+00
  0.00000000E+00  0.00000000E+00  0.00000000E+00
  0.00000000E+00  0.00000000E+00  0.00000000E+00
  0.00000000E+00  0.00000000E+00  0.00000000E+00
  0.00000000E+00  0.00000000E+00  0.00000000E+00
  0.00000000E+00  0.00000000E+00  0.00000000E+00
  0.00000000E+00  0.00000000E+00  0.00000000E+00
  0.00000000E+00  0.00000000E+00  0.00000000E+00
  0.00000000E+00  0.00000000E+00  0.00000000E+00
  0.00000000E+00  0.00000000E+00  0.00000000E+00
  0.00000000E+00  0.00000000E+00  0.00000000E+00
  0.00000000E+00  0.00000000E+00  0.00000000E+00
  0.00000000E+00  0.00000000E+00  0.00000000E+00
  0.00000000E+00  0.00000000E+00  0.00000000E+00
  0.00000000E+00  0.00000000E+00  0.00000000E+00
  0.00000000E+00  0.00000000E+00  0.00000000E+00
  0.00000000E+00  0.00000000E+00  0.00000000E+00
  0.00000000E+00  0.00000000E+00  0.00000000E+00
  0.00000000E+00  0.00000000E+00  0.00000000E+00
  0.00000000E+00  0.00000000E+00  0.00000000E+00
  0.00000000E+00  0.00000000E+00  0.00000000E+00
  0.00000000E+00  0.00000000E+00  0.00000000E+00
  0.00000000E+00  0.00000000E+00  0.00000000E+00
  0.00000000E+00  0.00000000E+00  0.00000000E+00
  0.00000000E+00  0.00000000E+00  0.00000000E+00
  0.00000000E+00  0.00000000E+00  0.00000000E+00
  0.00000000E+00  0.00000000E+00  0.00000000E+00
  0.00000000E+00  0.00000000E+00  0.00000000E+00
  0.00000000E+00  0.00000000E+00  0.00000000E+00
  0.00000000E+00  0.00000000E+00  0.00000000E+00
  0.00000000E+00  0.00000000E+00  0.00000000E+00
  0.00000000E+00  0.00000000E+00  0.00000000E+00
  0.00000000E+00  0.00000000E+00  0.00000000E+00
  0.00000000E+00  0.00000000E+00  0.00000000E+00
  0.00000000E+00  0.00000000E+00  0.00000000E+00
  0.00000000E+00  0.00000000E+00  0.00000000E+00
  0.00000000E+00  0.00000000E+00  0.00000000E+00
  0.00000000E+00  0.00000000E+00  0.00000000E+00
  0.00000000E+00  0.00000000E+00  0.00000000E+00
  0.00000000E+00  0.00000000E+00  0.00000000E+00
  0.00000000E+00  0.00000000E+00  0.00000000E+00
  0.00000000E+00  0.00000000E+00  0.00000000E+00
  0.00000000E+00  0.00000000E+00  0.00000000E+00
  0.00000000E+00  0.00000000E+00  0.00000000E+00
  0.00000000E+00  0.00000000E+00  0.00000000E+00
  0.00000000E+00  0.00000000E+00  0.00000000E+00
  0.00000000E+00  0.00000000E+00  0.00000000E+00
  0.00000000E+00  0.00000000E+00  0.00000000E+00
  0.00000000E+00  0.00000000E+00  0.00000000E+00
  0.00000000E+00  0.00000000E+00  0.00000000E+00
  0.00000000E+00  0.00000000E+00  0.00000000E+00
  0.00000000E+00  0.00000000E+00  0.00000000E+00
  0.00000000E+00  0.00000000E+00  0.00000000E+00
  0.00000000E+00  0.00000000E+00  0.00000000E+00
  0.00000000E+00  0.00000000E+00  0.00000000E+00
  0.00000000E+00  0.00000000E+00  0.00000000E+00
  0.00000000E+00  0.00000000E+00  0.00000000E+00
  0.00000000E+00  0.00000000E+00  0.00000000E+00
  0.00000000E+00  0.00000000E+00  0.00000000E+00
  0.00000000E+00  0.00000000E+00  0.00000000E+00
  0.00000000E+00  0.00000000E+00  0.00000000E+00
  0.00000000E+00  0.00000000E+00  0.00000000E+00
  0.00000000E+00  0.00000000E+00  0.00000000E+00
  0.00000000E+00  0.00000000E+00  0.00000000E+00
  0.00000000E+00  0.00000000E+00  0.00000000E+00
  0.00000000E+00  0.00000000E+00  0.00000000E+00
  0.00000000E+00  0.00000000E+00  0.00000000E+00
  0.00000000E+00  0.00000000E+00  0.00000000E+00
  0.00000000E+00  0.00000000E+00  0.00000000E+00
  0.00000000E+00  0.00000000E+00  0.00000000E+00
  0.00000000E+00  0.00000000E+00  0.00000000E+00
  0.00000000E+00  0.00000000E+00  0.00000000E+00
  0.00000000E+00  0.00000000E+00  0.00000000E+00
  0.00000000E+00  0.00000000E+00  0.00000000E+00
  0.00000000E+00  0.00000000E+00  0.00000000E+00
  0.00000000E+00  0.00000000E+00  0.00000000E+00
  0.00000000E+00  0.00000000E+00  0.00000000E+00
  0.00000000E+00  0.00000000E+00  0.00000000E+00
  0.00000000E+00  0.00000000E+00  0.00000000E+00
  0.00000000E+00  0.00000000E+00  0.00000000E+00
  0.00000000E+00  0.00000000E+00  0.00000000E+00
  0.00000000E+00  0.00000000E+00  0.00000000E+00
  0.00000000E+00  0.00000000E+00  0.00000000E+00
  0.00000000E+00  0.00000000E+00  0.00000000E+00
  0.00000000E+00  0.00000000E+00  0.00000000E+00
  0.00000000E+00  0.00000000E+00  0.00000000E+00
  0.00000000E+00  0.00000000E+00  0.00000000E+00
  0.00000000E+00  0.00000000E+00  0.00000000E+00
  0.00000000E+00  0.00000000E+00  0.00000000E+00
  0.00000000E+00  0.00000000E+00  0.00000000E+00
