Ni-N3-pyrrole_nh2                       
   1.00000000000000     
     8.3910662850000008    0.0145678353000000    0.0000147924000000
     0.0145403811000000    8.3909479259000008   -0.0000513364000000
     0.0000358296000000   -0.0001222403000000   19.8437584224999988
   C    N    Ni   H 
    21     4     1     2
Direct
  0.4867872215529649  0.0924003194125629  0.1592709689937144
  0.3408694702341609  0.1772018651730169  0.1555470572671513
  0.6329357313064224  0.1726224776558582  0.1629865916116558
  0.7843998568903292  0.9277528813884689  0.1531963602845041
  0.7811502330692289  0.0935869725696667  0.1567244282343094
  0.9060581417649050  0.2184764599853762  0.1562205679592608
  0.8270436147974404  0.3668500377648635  0.1618424182211370
  0.1915768605293010  0.0943019429343668  0.1525589295725045
  0.0719571414674388  0.2152211301603147  0.1528605915786388
  0.1592664855936154  0.3657746427963894  0.1543757599224762
  0.0772910784277101  0.5125300143895740  0.1553032729301976
  0.1573231636099060  0.6599289615886954  0.1545209868166966
  0.3397913851473550  0.8422691742050132  0.1552593158433489
  0.1910007884124610  0.9274408363944058  0.1522101033688447
  0.0721936211075381  0.8086819697381024  0.1517906428071492
  0.6338467084428703  0.8403820142782498  0.1547935571443540
  0.8225098838022910  0.6588400000635698  0.1543608322397934
  0.9052691063530836  0.8081429747415768  0.1519776340083645
  0.4871316805460918  0.9223621188392295  0.1565808806001384
  0.9072653605588731  0.5128552316844891  0.1576685215596602
  0.6570991074031372  0.3430838527190707  0.1762437227147686
  0.3208370832108364  0.3421307617136816  0.1557654259547414
  0.3187741705044095  0.6808293742360871  0.1588294849995326
  0.6575285371748085  0.6788478938272658  0.1552008167949759
  0.5933905009096996  0.4086239692172167  0.2375644830239273
  0.4873041346495695  0.5121017685299063  0.1582311753260842
  0.6692702548603466  0.4781736855679777  0.2648744980335482
  0.5254252032880387  0.3329324324001517  0.2656441375248468
 
  0.00000000E+00  0.00000000E+00  0.00000000E+00
  0.00000000E+00  0.00000000E+00  0.00000000E+00
  0.00000000E+00  0.00000000E+00  0.00000000E+00
  0.00000000E+00  0.00000000E+00  0.00000000E+00
  0.00000000E+00  0.00000000E+00  0.00000000E+00
  0.00000000E+00  0.00000000E+00  0.00000000E+00
  0.00000000E+00  0.00000000E+00  0.00000000E+00
  0.00000000E+00  0.00000000E+00  0.00000000E+00
  0.00000000E+00  0.00000000E+00  0.00000000E+00
  0.00000000E+00  0.00000000E+00  0.00000000E+00
  0.00000000E+00  0.00000000E+00  0.00000000E+00
  0.00000000E+00  0.00000000E+00  0.00000000E+00
  0.00000000E+00  0.00000000E+00  0.00000000E+00
  0.00000000E+00  0.00000000E+00  0.00000000E+00
  0.00000000E+00  0.00000000E+00  0.00000000E+00
  0.00000000E+00  0.00000000E+00  0.00000000E+00
  0.00000000E+00  0.00000000E+00  0.00000000E+00
  0.00000000E+00  0.00000000E+00  0.00000000E+00
  0.00000000E+00  0.00000000E+00  0.00000000E+00
  0.00000000E+00  0.00000000E+00  0.00000000E+00
  0.00000000E+00  0.00000000E+00  0.00000000E+00
  0.00000000E+00  0.00000000E+00  0.00000000E+00
  0.00000000E+00  0.00000000E+00  0.00000000E+00
  0.00000000E+00  0.00000000E+00  0.00000000E+00
  0.00000000E+00  0.00000000E+00  0.00000000E+00
  0.00000000E+00  0.00000000E+00  0.00000000E+00
  0.00000000E+00  0.00000000E+00  0.00000000E+00
  0.00000000E+00  0.00000000E+00  0.00000000E+00
