Ti-N2-pyrrole_nh2                       
   1.00000000000000     
     8.5401679267000006    0.0000305911000000   -0.0006933450000000
     0.0000313063000000    8.5062701418000000   -0.0000345148000000
    -0.0016040832000000   -0.0000806472000000   19.8374367597000010
   C    N    Ti   H 
    22     3     1     2
Direct
  0.4969593008602047  0.0843356392488293  0.1500054012271409
  0.3501136910577364  0.1642644458503063  0.1506953019871483
  0.6439324672892623  0.1667325449087245  0.1501078050334973
  0.7945914369080073  0.9189646218797790  0.1487066075012086
  0.7945909098280799  0.0809793591526224  0.1487068327171512
  0.9189596978672768  0.2049098786136377  0.1492630492520094
  0.8383781480223443  0.3538602129290309  0.1507617657723550
  0.2025953570424902  0.0823131931231768  0.1496780155576020
  0.0823242921838706  0.2026535966768483  0.1490339275657176
  0.1676218585919806  0.3516521309665455  0.1500213775626523
  0.0892129674942092  0.4999734906211565  0.1499256305687792
  0.1676195986578567  0.6482946751184261  0.1500203700065165
  0.3501138088197196  0.8356805693795922  0.1506916314520724
  0.2025935656265480  0.9176307381166385  0.1496754022290305
  0.0823224983626329  0.7972928499247244  0.1490349152250317
  0.6439327862699082  0.8332108194876577  0.1501070871869840
  0.8383766940592995  0.6460812570091254  0.1507627906684179
  0.9189570491469990  0.7950341509306124  0.1492651783516064
  0.4969589484913005  0.9156086444095203  0.1500025360787375
  0.9212884363548495  0.4999731836965119  0.1502447027877800
  0.6694056306587283  0.3314942903610368  0.1547475915639220
  0.6694052826123450  0.6684492155603571  0.1547466556416449
  0.3265226284438087  0.3268517794920032  0.1522957566798615
  0.3265214534196165  0.6730930247649212  0.1522919232558357
  0.5033836124817614  0.4999699408135344  0.2777996072057912
  0.4964863557560527  0.4999749570783819  0.1822699716382467
  0.6026334213657328  0.4999704149136002  0.3064218731344632
  0.4062426175963280  0.4999882226072607  0.3079271124480644
 
  0.00000000E+00  0.00000000E+00  0.00000000E+00
  0.00000000E+00  0.00000000E+00  0.00000000E+00
  0.00000000E+00  0.00000000E+00  0.00000000E+00
  0.00000000E+00  0.00000000E+00  0.00000000E+00
  0.00000000E+00  0.00000000E+00  0.00000000E+00
  0.00000000E+00  0.00000000E+00  0.00000000E+00
  0.00000000E+00  0.00000000E+00  0.00000000E+00
  0.00000000E+00  0.00000000E+00  0.00000000E+00
  0.00000000E+00  0.00000000E+00  0.00000000E+00
  0.00000000E+00  0.00000000E+00  0.00000000E+00
  0.00000000E+00  0.00000000E+00  0.00000000E+00
  0.00000000E+00  0.00000000E+00  0.00000000E+00
  0.00000000E+00  0.00000000E+00  0.00000000E+00
  0.00000000E+00  0.00000000E+00  0.00000000E+00
  0.00000000E+00  0.00000000E+00  0.00000000E+00
  0.00000000E+00  0.00000000E+00  0.00000000E+00
  0.00000000E+00  0.00000000E+00  0.00000000E+00
  0.00000000E+00  0.00000000E+00  0.00000000E+00
  0.00000000E+00  0.00000000E+00  0.00000000E+00
  0.00000000E+00  0.00000000E+00  0.00000000E+00
  0.00000000E+00  0.00000000E+00  0.00000000E+00
  0.00000000E+00  0.00000000E+00  0.00000000E+00
  0.00000000E+00  0.00000000E+00  0.00000000E+00
  0.00000000E+00  0.00000000E+00  0.00000000E+00
  0.00000000E+00  0.00000000E+00  0.00000000E+00
  0.00000000E+00  0.00000000E+00  0.00000000E+00
  0.00000000E+00  0.00000000E+00  0.00000000E+00
  0.00000000E+00  0.00000000E+00  0.00000000E+00
