Ti-pyrridine-N1_nh2                     
   1.00000000000000     
    12.4711282269999995    0.0000000000000000    0.0000000000000000
     0.0000000000000000   12.8385570618999996    0.0000000000000000
     0.0000000000000000    0.0000000000000000   19.8713392818999992
   C    N    Ti   H 
    57     2     1     2
Direct
  0.0520594120061343  0.0479523179902316  0.1547696852317232
  0.1519037927854979  0.1024415777669660  0.1551784468005374
  0.1511365036253711  0.2133774819754791  0.1550346744308752
  0.0516700076048445  0.2687655464342122  0.1539800241580088
  0.2523495221446145  0.0473603754361046  0.1563511954093763
  0.3521151350942368  0.1025167936096126  0.1584520410893671
  0.3510638982535487  0.2143069077983547  0.1595586870572567
  0.2506860813344732  0.2685638182005819  0.1570294344433166
  0.4524675810634183  0.0474359908504427  0.1602597269594662
  0.5520796141884413  0.1051754538156938  0.1616896281205453
  0.5516650714385315  0.2167181730650861  0.1645327571571829
  0.4498711577042593  0.2719622197948032  0.1653115823087405
  0.6519518421025637  0.0481456652740032  0.1598777870084379
  0.7518907580191335  0.1035071244585597  0.1581609715294175
  0.7522282702916722  0.2154744119484833  0.1585531977540819
  0.6529174505237020  0.2731209899838708  0.1630564976229070
  0.8518503161295892  0.0481722560271218  0.1563819118365837
  0.9520449491998386  0.1030365241529515  0.1552070298040701
  0.9521965021563397  0.2140852587780540  0.1548899249999676
  0.8523518405507786  0.2700564166479004  0.1561749654380570
  0.0516516128243415  0.3808800850233224  0.1530526453426658
  0.1500649230872544  0.4360848863310713  0.1539388025095443
  0.1502336952040280  0.5478576358367298  0.1537088149245071
  0.0520199454599387  0.6034700449325867  0.1525858625681953
  0.2485280864052779  0.3796695707264411  0.1570465858633551
  0.3463784143811079  0.4342124441557943  0.1631840972007216
  0.3465720468006533  0.5487047787349671  0.1623736252021036
  0.2488726296298078  0.6038270093633610  0.1564122970271757
  0.7555586668486983  0.4369005841720429  0.1597730344006571
  0.7570771909723178  0.5518879381412092  0.1594446102630799
  0.8543413061116023  0.3815613710415503  0.1557662010263855
  0.9533092095888149  0.4366824694969534  0.1533552306422790
  0.9537204834114702  0.5481648431089980  0.1529797448411732
  0.8555466274559246  0.6049997262333053  0.1550027997695824
  0.0524860756485017  0.7156692544199774  0.1532227249989566
  0.1518630431581984  0.7706672197049660  0.1542718607784678
  0.0522525931479905  0.9369211252610935  0.1545343604906405
  0.2514858376847944  0.7149665361730367  0.1561058519710120
  0.3518417828963099  0.7688693024645096  0.1585816656169452
  0.3525176257998782  0.8805589613078961  0.1580121225744427
  0.2525908654041885  0.9362934173946629  0.1561684130694782
  0.4510881561822837  0.7107391100292118  0.1634825598460680
  0.5532805426867711  0.7656400378213170  0.1633988892547953
  0.5531405553964313  0.8778763785747159  0.1612069830008529
  0.4529930420293284  0.9352765744223421  0.1600104626542115
  0.6557799370172447  0.7110106553977760  0.1624846479060714
  0.7537589966855066  0.7698603063600211  0.1581462692525134
  0.7524560742092830  0.8815289848743496  0.1578514925378993
  0.6521931131510469  0.9360560490569072  0.1597021649912986
  0.8539467862293775  0.7161280714847753  0.1555647661438537
  0.9533531132111539  0.7714016325239575  0.1541509670034075
  0.8521062064076242  0.9369471758844314  0.1562101231706625
  0.1521107528518688  0.8816949743653711  0.1547452230611417
  0.9525117849014512  0.8822568779970171  0.1548064872790456
  0.4441194820878413  0.3818487385498843  0.1711086013120842
  0.4448084084969126  0.6009664100100328  0.1681730300411568
  0.6578608577541553  0.3837318076461884  0.1654752677916784
  0.6625386781966256  0.6039426899869752  0.1651344135444145
  0.5510505700430390  0.4867343113317129  0.3043886931810557
  0.5537658701362304  0.4928761963598072  0.2076824113765443
  0.6040194224660402  0.4476893863614592  0.3343777982072529
  0.4940807884691838  0.5214048376479639  0.3338072820620696
 
  0.00000000E+00  0.00000000E+00  0.00000000E+00
  0.00000000E+00  0.00000000E+00  0.00000000E+00
  0.00000000E+00  0.00000000E+00  0.00000000E+00
  0.00000000E+00  0.00000000E+00  0.00000000E+00
  0.00000000E+00  0.00000000E+00  0.00000000E+00
  0.00000000E+00  0.00000000E+00  0.00000000E+00
  0.00000000E+00  0.00000000E+00  0.00000000E+00
  0.00000000E+00  0.00000000E+00  0.00000000E+00
  0.00000000E+00  0.00000000E+00  0.00000000E+00
  0.00000000E+00  0.00000000E+00  0.00000000E+00
  0.00000000E+00  0.00000000E+00  0.00000000E+00
  0.00000000E+00  0.00000000E+00  0.00000000E+00
  0.00000000E+00  0.00000000E+00  0.00000000E+00
  0.00000000E+00  0.00000000E+00  0.00000000E+00
  0.00000000E+00  0.00000000E+00  0.00000000E+00
  0.00000000E+00  0.00000000E+00  0.00000000E+00
  0.00000000E+00  0.00000000E+00  0.00000000E+00
  0.00000000E+00  0.00000000E+00  0.00000000E+00
  0.00000000E+00  0.00000000E+00  0.00000000E+00
  0.00000000E+00  0.00000000E+00  0.00000000E+00
  0.00000000E+00  0.00000000E+00  0.00000000E+00
  0.00000000E+00  0.00000000E+00  0.00000000E+00
  0.00000000E+00  0.00000000E+00  0.00000000E+00
  0.00000000E+00  0.00000000E+00  0.00000000E+00
  0.00000000E+00  0.00000000E+00  0.00000000E+00
  0.00000000E+00  0.00000000E+00  0.00000000E+00
  0.00000000E+00  0.00000000E+00  0.00000000E+00
  0.00000000E+00  0.00000000E+00  0.00000000E+00
  0.00000000E+00  0.00000000E+00  0.00000000E+00
  0.00000000E+00  0.00000000E+00  0.00000000E+00
  0.00000000E+00  0.00000000E+00  0.00000000E+00
  0.00000000E+00  0.00000000E+00  0.00000000E+00
  0.00000000E+00  0.00000000E+00  0.00000000E+00
  0.00000000E+00  0.00000000E+00  0.00000000E+00
  0.00000000E+00  0.00000000E+00  0.00000000E+00
  0.00000000E+00  0.00000000E+00  0.00000000E+00
  0.00000000E+00  0.00000000E+00  0.00000000E+00
  0.00000000E+00  0.00000000E+00  0.00000000E+00
  0.00000000E+00  0.00000000E+00  0.00000000E+00
  0.00000000E+00  0.00000000E+00  0.00000000E+00
  0.00000000E+00  0.00000000E+00  0.00000000E+00
  0.00000000E+00  0.00000000E+00  0.00000000E+00
  0.00000000E+00  0.00000000E+00  0.00000000E+00
  0.00000000E+00  0.00000000E+00  0.00000000E+00
  0.00000000E+00  0.00000000E+00  0.00000000E+00
  0.00000000E+00  0.00000000E+00  0.00000000E+00
  0.00000000E+00  0.00000000E+00  0.00000000E+00
  0.00000000E+00  0.00000000E+00  0.00000000E+00
  0.00000000E+00  0.00000000E+00  0.00000000E+00
  0.00000000E+00  0.00000000E+00  0.00000000E+00
  0.00000000E+00  0.00000000E+00  0.00000000E+00
  0.00000000E+00  0.00000000E+00  0.00000000E+00
  0.00000000E+00  0.00000000E+00  0.00000000E+00
  0.00000000E+00  0.00000000E+00  0.00000000E+00
  0.00000000E+00  0.00000000E+00  0.00000000E+00
  0.00000000E+00  0.00000000E+00  0.00000000E+00
  0.00000000E+00  0.00000000E+00  0.00000000E+00
  0.00000000E+00  0.00000000E+00  0.00000000E+00
  0.00000000E+00  0.00000000E+00  0.00000000E+00
  0.00000000E+00  0.00000000E+00  0.00000000E+00
  0.00000000E+00  0.00000000E+00  0.00000000E+00
  0.00000000E+00  0.00000000E+00  0.00000000E+00
