V-pyridine-N4_nh2                       
   1.00000000000000     
    12.5073929764000003    0.0000000000000000    0.0000000000000000
     0.0000000000000000   12.7953197422000002    0.0000000000000000
     0.0000000000000000    0.0000000000000000   20.0000000000000000
   C    N    V    H 
    54     5     1     2
Direct
  0.0522406857596442  0.0472295835898795  0.1548665742084026
  0.1525875637610025  0.1023816513881026  0.1551117839095960
  0.1520084316391453  0.2135934397021298  0.1546187790428190
  0.0521875323549014  0.2688870721231772  0.1538338201728001
  0.2532665094187064  0.0477231012167863  0.1557399137463434
  0.3533491889817991  0.1037768184742054  0.1562350031134525
  0.3521674711184853  0.2155412243300719  0.1563984816694770
  0.2510438440968699  0.2692143673414283  0.1552568909119456
  0.4536688626274133  0.0482470253273959  0.1570130082744426
  0.5522234249554836  0.1070345914035437  0.1578499087195895
  0.5522212954706168  0.2209347755935920  0.1598944566723517
  0.4498177717293750  0.2756003993433014  0.1597306386265031
  0.6507555347539750  0.0482437836200111  0.1569557411348454
  0.7510788333501726  0.1037507434633547  0.1561912240084224
  0.7522306805068765  0.2155077787738292  0.1564254087093747
  0.6546123374595892  0.2756130224659240  0.1597094937244819
  0.8511677862985225  0.0477200071329903  0.1556568627798585
  0.9518588146682017  0.1023359924807273  0.1550975706404258
  0.9523963997092694  0.2135458726155033  0.1546453738846158
  0.8533579447156259  0.2691573290931357  0.1552959857333446
  0.0521913685751026  0.3798775604353598  0.1529282754220114
  0.1503727712299120  0.4362745171445292  0.1531748301063671
  0.1503684970164771  0.5474501122014148  0.1532113633360304
  0.0521936305634725  0.6038577977302503  0.1529880938099199
  0.2492000224550403  0.3807059593760903  0.1548807349999374
  0.3469783094310093  0.4358261069983773  0.1580130268641546
  0.3469837150035404  0.5479114147120200  0.1580224384031662
  0.2491969627088626  0.6030260297073454  0.1549160696009271
  0.7574764400114875  0.4358178957417350  0.1580414102572161
  0.7574723677392590  0.5479039844725636  0.1580472558993577
  0.8552218049721009  0.3806509555052531  0.1549489494888191
  0.9540095776131372  0.4362662054335082  0.1532758657470008
  0.9540134412712893  0.5474674406833062  0.1533081595533983
  0.8552239431489234  0.6030712113613861  0.1549684309487745
  0.0521903630330799  0.7148504877922718  0.1538895091860797
  0.1520130066198732  0.7701527659391588  0.1546600161098035
  0.0522362350071228  0.9365054926209178  0.1548837729680030
  0.2510326391281897  0.7145202452336448  0.1553093608088865
  0.3521571870443755  0.7682077144190234  0.1564160457774406
  0.3533370501653822  0.8799820338506975  0.1562367404478741
  0.2532642334085144  0.9360350376924594  0.1557464469636297
  0.4498087515387580  0.7081526201169120  0.1597209341769228
  0.5522239531901294  0.7627978290002740  0.1598765445626774
  0.5522178937705855  0.8767012868367238  0.1578476094775720
  0.4536635628808707  0.9354935006479924  0.1570225619590173
  0.6546127013437548  0.7081264852845195  0.1596915512523848
  0.7522350497983505  0.7682373121339208  0.1564070063042156
  0.7510769814359162  0.8800018754300803  0.1561757278357430
  0.6507521256168797  0.9355040607213446  0.1569504562342011
  0.8533513628816214  0.7145652533585032  0.1553123755577176
  0.9523848000456810  0.7701914769852127  0.1546886872432878
  0.8511641711428696  0.9360398419932467  0.1556627834026183
  0.1525876278469908  0.8813663600629363  0.1551298423096538
  0.9518621631532075  0.8813942069351139  0.1551118759459869
  0.4438617645403292  0.3832183679683945  0.1633350010950790
  0.4438570999238493  0.6005388095889963  0.1633270545715624
  0.6605877671957777  0.3832281593550583  0.1632970592033541
  0.6605932883692683  0.6005047742317925  0.1632906564959783
  0.5521386122086941  0.4919495008567253  0.2833848326329452
  0.5522201901270458  0.4919077065271026  0.1905546892794371
  0.6189043760790817  0.4920006883236908  0.3128811603932943
  0.4853103358108657  0.4919748152916874  0.3128316678144571
 
  0.00000000E+00  0.00000000E+00  0.00000000E+00
  0.00000000E+00  0.00000000E+00  0.00000000E+00
  0.00000000E+00  0.00000000E+00  0.00000000E+00
  0.00000000E+00  0.00000000E+00  0.00000000E+00
  0.00000000E+00  0.00000000E+00  0.00000000E+00
  0.00000000E+00  0.00000000E+00  0.00000000E+00
  0.00000000E+00  0.00000000E+00  0.00000000E+00
  0.00000000E+00  0.00000000E+00  0.00000000E+00
  0.00000000E+00  0.00000000E+00  0.00000000E+00
  0.00000000E+00  0.00000000E+00  0.00000000E+00
  0.00000000E+00  0.00000000E+00  0.00000000E+00
  0.00000000E+00  0.00000000E+00  0.00000000E+00
  0.00000000E+00  0.00000000E+00  0.00000000E+00
  0.00000000E+00  0.00000000E+00  0.00000000E+00
  0.00000000E+00  0.00000000E+00  0.00000000E+00
  0.00000000E+00  0.00000000E+00  0.00000000E+00
  0.00000000E+00  0.00000000E+00  0.00000000E+00
  0.00000000E+00  0.00000000E+00  0.00000000E+00
  0.00000000E+00  0.00000000E+00  0.00000000E+00
  0.00000000E+00  0.00000000E+00  0.00000000E+00
  0.00000000E+00  0.00000000E+00  0.00000000E+00
  0.00000000E+00  0.00000000E+00  0.00000000E+00
  0.00000000E+00  0.00000000E+00  0.00000000E+00
  0.00000000E+00  0.00000000E+00  0.00000000E+00
  0.00000000E+00  0.00000000E+00  0.00000000E+00
  0.00000000E+00  0.00000000E+00  0.00000000E+00
  0.00000000E+00  0.00000000E+00  0.00000000E+00
  0.00000000E+00  0.00000000E+00  0.00000000E+00
  0.00000000E+00  0.00000000E+00  0.00000000E+00
  0.00000000E+00  0.00000000E+00  0.00000000E+00
  0.00000000E+00  0.00000000E+00  0.00000000E+00
  0.00000000E+00  0.00000000E+00  0.00000000E+00
  0.00000000E+00  0.00000000E+00  0.00000000E+00
  0.00000000E+00  0.00000000E+00  0.00000000E+00
  0.00000000E+00  0.00000000E+00  0.00000000E+00
  0.00000000E+00  0.00000000E+00  0.00000000E+00
  0.00000000E+00  0.00000000E+00  0.00000000E+00
  0.00000000E+00  0.00000000E+00  0.00000000E+00
  0.00000000E+00  0.00000000E+00  0.00000000E+00
  0.00000000E+00  0.00000000E+00  0.00000000E+00
  0.00000000E+00  0.00000000E+00  0.00000000E+00
  0.00000000E+00  0.00000000E+00  0.00000000E+00
  0.00000000E+00  0.00000000E+00  0.00000000E+00
  0.00000000E+00  0.00000000E+00  0.00000000E+00
  0.00000000E+00  0.00000000E+00  0.00000000E+00
  0.00000000E+00  0.00000000E+00  0.00000000E+00
  0.00000000E+00  0.00000000E+00  0.00000000E+00
  0.00000000E+00  0.00000000E+00  0.00000000E+00
  0.00000000E+00  0.00000000E+00  0.00000000E+00
  0.00000000E+00  0.00000000E+00  0.00000000E+00
  0.00000000E+00  0.00000000E+00  0.00000000E+00
  0.00000000E+00  0.00000000E+00  0.00000000E+00
  0.00000000E+00  0.00000000E+00  0.00000000E+00
  0.00000000E+00  0.00000000E+00  0.00000000E+00
  0.00000000E+00  0.00000000E+00  0.00000000E+00
  0.00000000E+00  0.00000000E+00  0.00000000E+00
  0.00000000E+00  0.00000000E+00  0.00000000E+00
  0.00000000E+00  0.00000000E+00  0.00000000E+00
  0.00000000E+00  0.00000000E+00  0.00000000E+00
  0.00000000E+00  0.00000000E+00  0.00000000E+00
  0.00000000E+00  0.00000000E+00  0.00000000E+00
  0.00000000E+00  0.00000000E+00  0.00000000E+00
