Fe-phthalocyanine-N4_nh2                
   1.00000000000000     
    11.1316324917999996  -19.2826567926999992    0.0000000000000000
    11.1316324917999996   19.2826567926999992    0.0000000000000000
     0.0000000000000000    0.0000000000000000   16.0000000000000000
   C    N    H    Fe
   194     9    18     1
Direct
  0.0000461917740479 -0.0000437178459188  0.1238434800183597
  0.0371218339552100  0.0740467007965343  0.1238434661289395
  0.0000415983008305  0.1110900194119555  0.1231695005492670
  0.0371075615163085  0.1851487914290805  0.1226540688710742
  0.0000450981027147  0.2221880492680304  0.1211849397322074
  0.0371153767743177  0.2962754027325527  0.1201665460501971
  0.0000684350384706  0.3333036553747042  0.1185335849932157
  0.0371517683955296  0.4073630365535643  0.1175984773459782
  0.0000631179686768  0.4444144850135783  0.1167965113103499
  0.0371288491506186  0.5184721597545574  0.1165604195264626
  0.0000604711477783  0.5555162949808936  0.1167099149790459
  0.0371059116398934  0.6295903676262261  0.1173343703709286
  0.0000454844404818  0.6666111527743271  0.1182937134235493
  0.0371010488690031  0.7406939502023270  0.1193049461217193
  0.0000369570888869  0.7777453273104431  0.1206801526886552
  0.0370762214408232  0.8517891774206722  0.1216728651192584
  0.0000129758361141  0.8888235753550866  0.1228393676094727
  0.0370939093377336  0.9629217196357757  0.1234906825543709
  0.1111876146995835  0.0000185972873277  0.1233051036155338
  0.1482438196566404  0.0740741815459646  0.1236139192181765
  0.1111894919742292  0.1111187835336201  0.1239667604265737
  0.1482566160695750  0.1852025509871228  0.1238969784191256
  0.1112055649188499  0.2222197494455664  0.1232614987292455
  0.1482549006500749  0.2962827662581098  0.1225624106181800
  0.1112108363530253  0.3333390147299376  0.1207846920968917
  0.1482597421638232  0.4073711500505903  0.1192945914949418
  0.1112204111364937  0.4444038272683173  0.1177215139222898
  0.1483033083174349  0.5184754667659716  0.1168925913954729
  0.1112482116713979  0.5555024703743844  0.1166856100099622
  0.1482659314788665  0.6295674995326224  0.1170543388229193
  0.1111821884515729  0.6666269864189884  0.1174267497264385
  0.1482059202203599  0.7406801217725888  0.1182491757552029
  0.1111639517037487  0.7777353558204002  0.1191359340248187
  0.1482123078536602  0.8518177199064763  0.1202005664833592
  0.1111765229334845  0.8888565132882983  0.1214097427569993
  0.1482251246590484  0.9629402794439225  0.1223948284515211
  0.2222820048330403  0.0000147588080451  0.1221630373352093
  0.2593400715811987  0.0741103968201267  0.1226305727664832
  0.2223236237173132  0.1111654995969196  0.1232014026958542
  0.2593659987684362  0.1852151960153823  0.1235153747202260
  0.2223165477868046  0.2222536378726062  0.1239254813351701
  0.2592996678060642  0.2962486176260137  0.1241223043458933
  0.2222884115957943  0.3333148078507199  0.1232461492651848
  0.2593173491184720  0.4073689103555170  0.1222864012196404
  0.2223289348260887  0.4444088576229195  0.1199368090225258
  0.2593746293969546  0.5184393972455297  0.1188681880454057
  0.2223501445430622  0.5554928482447593  0.1173227479677666
  0.2593675406388503  0.6295197234748761  0.1176661377552697
  0.2223360213762635  0.6665800453437141  0.1175426282068541
  0.2593472033072484  0.7406755172084492  0.1183802039485367
  0.2223073063920647  0.7777338211715640  0.1186163183321135
  0.2593355832290725  0.8518045914621361  0.1195554549641968
  0.2222778435515629  0.8888738643096943  0.1202716122857539
  0.2593141374043764  0.9629378436554253  0.1212299411913626
  0.3334080150027460 -0.0000066097701535  0.1210974498275750
  0.3704401502975968  0.0740717516957197  0.1216540232109943
  0.3334055835276760  0.1111624715610489  0.1223492044680723
  0.3704174097948271  0.1851888013945892  0.1226271211372925
  0.3333702287990110  0.2222158894327805  0.1233952566988430
  0.3704363454717844  0.2962783311419952  0.1241050820969859
  0.3333805415631784  0.3332950375489313  0.1246724552074124
  0.3704122931873284  0.4073465348290363  0.1250504850895728
  0.3333775164086147  0.4444093609735690  0.1236136204085011
  0.3704285805856224  0.5184432721492944  0.1228495901406373
  0.3333908113952335  0.5554743913364374  0.1205190722852422
  0.3704544305239855  0.6295222166642406  0.1205617537251469
  0.3334149727158313  0.6665508381001296  0.1192467839817919
  0.3704504094712901  0.7406129351921150  0.1199970857187979
  0.3334027556443369  0.7777003108399896  0.1193612274786240
  0.3704182175010880  0.8517593541512481  0.1198883402837579
  0.3333852070257249  0.8888331279432776  0.1198863203871846
  0.3704199637316984  0.9629116459000383  0.1204068566910110
  0.4444832147931416 -0.0000559707025647  0.1203514626792539
  0.4815157382493077  0.0740116422784682  0.1203787715450997
  0.4444822067819899  0.1110860655131247  0.1211067803175124
  0.4815231426973499  0.1851786113580400  0.1210189495743151
  0.4444967745584052  0.2222242543440900  0.1219526381161097
  0.4815624860739272  0.2962704867632182  0.1218409322375580
  0.4445014735589224  0.3333062168852001  0.1234310631787003
  0.4815620252527976  0.4073099865354017  0.1240989212284023
  0.4445054892074711  0.4443709283561289  0.1254769054624969
  0.4815634792659469  0.5184588447511770  0.1252188909691716
  0.4445040131182757  0.5554787686890016  0.1241119135131252
  0.4815586334829096  0.6295207118611061  0.1234313167642671
  0.4444761490691188  0.6665369590262925  0.1222999608414013
  0.4815225679731173  0.7405679842400459  0.1224299877130888
  0.4445057942033964  0.7776412487096555  0.1213850281496891
  0.4815342523890996  0.8517335575084946  0.1213458244529439
  0.4445079137246448  0.8887898559523765  0.1205423377618016
  0.4815472683474636  0.9628726071806708  0.1204123855768487
  0.5555932166356006 -0.0000734264457427  0.1204476792243795
  0.5926319162951572  0.0740161733717858  0.1197049729876174
  0.5556030650367008  0.1110713765198695  0.1196748429190535
  0.5926325438958620  0.1851435586410468  0.1189371159992172
  0.5555939291100879  0.2222396456681777  0.1195208592994490
  0.5926220743897208  0.2962790193220352  0.1185260567774454
  0.5555665147591087  0.3332885079187105  0.1199672297475724
  0.5926485107979600  0.4073419753664921  0.1199696344103397
  0.5556283229554894  0.4443544640222479  0.1224204331134374
  0.5926761715677830  0.5184241264441531  0.1229396374942081
  0.5556423968567245  0.5554835654782215  0.1243879193482940
  0.5926252028945375  0.6294976452734415  0.1238692474900426
  0.5555713942547073  0.6665307009409052  0.1236671314670205
  0.5926236472642447  0.7405933252382468  0.1231940223348505
  0.5556019032740893  0.7776177146761682  0.1229984258000954
  0.5926293299877545  0.8516947551920776  0.1227403053181720
  0.5555955323629372  0.8887852810507273  0.1219341614520389
  0.5926198899787047  0.9628441255260392  0.1211896421563471
  0.6667123429440353  0.9999174948018090  0.1211444825470871
  0.7037498961183853  0.0739943016967490  0.1200259654432373
  0.6666960357365096  0.1110581492862012  0.1191842173530503
  0.7037206316766942  0.1851182327519728  0.1180577663578391
  0.6666728114152157  0.2221871574288540  0.1177954779546817
  0.7036948963755438  0.2962842303409837  0.1167878186282864
  0.6666739910926029  0.3333218807085898  0.1168274764436947
  0.7037100988576954  0.4073564241083260  0.1166010346702963
  0.6666784611977601  0.4443920727180103  0.1182345491303954
  0.7037025472959665  0.5184177479152169  0.1193237313527539
  0.6666955021385768  0.5554664385693237  0.1215123740788229
  0.7036980674890632  0.6295176378554217  0.1223805820267146
  0.6666987724618023  0.6665627058405037  0.1231538075423607
  0.7036961684576676  0.7405973547363042  0.1231686744230555
  0.6666475062587086  0.7776420489403150  0.1231176173942768
  0.7036804333123887  0.8516687629344443  0.1231225935485417
  0.6666609823908586  0.8887315544337409  0.1228045532770237
  0.7037204913474275  0.9628446936055651  0.1221078867075358
  0.7777992923948984  0.9999341766534721  0.1221514487723033
  0.8148422984543300  0.0739944339438764  0.1210837173441435
  0.7777950576931253  0.1110515781174325  0.1199249076775894
  0.8148531891876645  0.1851364864087428  0.1187887710718221
  0.7778155504471181  0.2221827377344287  0.1177173255686865
  0.8148536529542039  0.2962565525737441  0.1168992487274256
  0.7777715847216695  0.3333212085002413  0.1164487988171807
  0.8148050883485007  0.4073679520002541  0.1162003357213081
  0.7777351106534985  0.4443896479047640  0.1162973586503211
  0.8148059162176524  0.5184595402442254  0.1173285660195942
  0.7777733827312548  0.5554783655872326  0.1188760012647997
  0.8148217126051730  0.6295373135435763  0.1204156327635995
  0.7777536733848055  0.6665740464578186  0.1220091260096011
  0.8147754484337560  0.7406157213453213  0.1228312367166325
  0.7777114448278540  0.7776385183491858  0.1233488587122752
  0.8147799396883918  0.8517224605582391  0.1236832785320497
  0.7777628010146740  0.8887804783515308  0.1234450453292248
  0.8148338511038776  0.9628514157783338  0.1230787807732422
  0.8888827216231222 -0.0000883691097457  0.1232876250097811
  0.9259579517174727  0.0740155431330410  0.1226310515416163
  0.8889408391483210  0.1110679983593995  0.1213429725485696
  0.9259843186310275  0.1851340057700828  0.1204679682295732
  0.8889241044871466  0.2221926164516762  0.1190134616492614
  0.9259613295189810  0.2962440903232594  0.1180917311411393
  0.8889161234543325  0.3332896055043484  0.1170623478344375
  0.9259781201417354  0.4073786179316855  0.1166609903550401
  0.8889198438289758  0.4444072112156157  0.1163918930042948
  0.9259886628825289  0.5184734376679234  0.1166864530320835
  0.8888906943164234  0.5555082574243461  0.1173953256557155
  0.9259410280113316  0.6295531643882019  0.1184729501679398
  0.8888743553847783  0.6665763029522827  0.1199791337280465
  0.9259375573416095  0.7406618884304700  0.1211035621201993
  0.8888910876286791  0.7776878273674792  0.1224789629482383
  0.9259549610014410  0.8517648935239571  0.1231357287857063
  0.8888653628444513  0.8887966504887145  0.1237058809475295
  0.9259324618286596  0.9628651415161974  0.1237638682696881
  0.2690949968647213  0.1348465142742702  0.3387683406766289
  0.3381857549736141  0.1883640735955378  0.3386137047510788
  0.3507407087650379  0.2563845173532674  0.3393431052085151
  0.2957788305284270  0.2705130154166740  0.3393752131103482
  0.2267713204318276  0.2170981693663409  0.3390494070388196
  0.2141571752058460  0.1490107715700781  0.3391198365855199
  0.3273502122976855  0.3457363543352225  0.3387778226958930
  0.4145924739611815  0.3233586776386703  0.3390343641458411
  0.3196348608430664  0.4456453074149324  0.3328313882663146
  0.3959305439926681  0.5596230303345783  0.3332378797002047
  0.2794217606416243  0.4805602483404143  0.3308740120804929
  0.3274024450348300  0.5523165943283495  0.3310260400510079
  0.3052309023084067  0.6009669800121034  0.3283306213850862
  0.2339844007097160  0.5758787745449063  0.3262797406837585
  0.1859575216630683  0.5040752295439324  0.3263281020915599
  0.2080097133172066  0.4554990722445905  0.3282075420509225
  0.5342987749684092  0.3903812446864611  0.3341279126198365
  0.6103714458706635  0.5041694083257113  0.3335226259409033
  0.6251532040386031  0.3490795730404668  0.3295135500024977
  0.6964317102620582  0.3742551847561318  0.3270522790089440
  0.7443611693089350  0.4460502669554424  0.3266503698024511
  0.7221955834024091  0.4945553265350065  0.3287560973598623
  0.6507972896702064  0.4693964562931391  0.3315150672084393
  0.6028526460509793  0.3976242158954201  0.3318920736345183
  0.6025452421430271  0.6039945242104682  0.3383753180305632
  0.5156059641636099  0.6267501072492668  0.3395138659579036
  0.6342942420404835  0.6792105948264096  0.3388634680049549
  0.7033868703921233  0.7323766345195357  0.3379658176269135
  0.7163525385086840  0.8005858069992926  0.3391590088477385
  0.6616551290231101  0.8150976152942642  0.3404021907540963
  0.5924558323516934  0.7617981165807969  0.3405291178820877
  0.5795432561750865  0.6936499741269312  0.3399884360186843
  0.3991183424789919  0.3765014375589774  0.3395479117087965
  0.2904516063560139  0.3772682851549737  0.3362613608389734
  0.3898569072533951  0.4944237609461252  0.3323266256826580
  0.4766623921258242  0.3292991384757181  0.3369794827456065
  0.5402621684827030  0.4554219026943577  0.3335374229183784
  0.6394920508289098  0.5725504434379795  0.3358325757571178
  0.5308185437795472  0.5734002411102852  0.3397941278214077
  0.4534722545331458  0.6207393906788096  0.3371747922574536
  0.4612183090009615  0.4754115124109691  0.4604640118575513
  0.2573108123245857  0.0809701128859544  0.3376321673837051
  0.3810480269719176  0.1777957354949783  0.3375428002566938
  0.1845609002217759  0.2286197047658549  0.3384700332918814
  0.1608161750400036  0.1058873819803165  0.3383436238873085
  0.3427289127018574  0.6563836012618534  0.3268738537279197
  0.2147827719197992  0.6123405930330303  0.3231361909466500
  0.1306109755152753  0.4864758932830185  0.3233969075479754
  0.1714164317771454  0.3998487068815423  0.3266614209427031
  0.5876995580949484  0.2935990011218264  0.3293479127596146
  0.7156930366736400  0.3378215649299742  0.3245611101709689
  0.7997257066149601  0.4636999471461041  0.3239137951667197
  0.7588242813839138  0.5502139631221142  0.3275755614572946
  0.7454104719946106  0.7205956388975150  0.3359610075420877
  0.7697973879592024  0.8435118751758046  0.3380497340223147
  0.6737302558525481  0.8690623060057726  0.3403584258547631
  0.5497797599895886  0.7726442003559756  0.3409246813454546
  0.4721262206758534  0.5219749391494259  0.4862533702080555
  0.4166027466834388  0.4360799669331002  0.4861388324501962
  0.4646410228609499  0.4749641076902973  0.3472815461091038
 
  0.00000000E+00  0.00000000E+00  0.00000000E+00
  0.00000000E+00  0.00000000E+00  0.00000000E+00
  0.00000000E+00  0.00000000E+00  0.00000000E+00
  0.00000000E+00  0.00000000E+00  0.00000000E+00
  0.00000000E+00  0.00000000E+00  0.00000000E+00
  0.00000000E+00  0.00000000E+00  0.00000000E+00
  0.00000000E+00  0.00000000E+00  0.00000000E+00
  0.00000000E+00  0.00000000E+00  0.00000000E+00
  0.00000000E+00  0.00000000E+00  0.00000000E+00
  0.00000000E+00  0.00000000E+00  0.00000000E+00
  0.00000000E+00  0.00000000E+00  0.00000000E+00
  0.00000000E+00  0.00000000E+00  0.00000000E+00
  0.00000000E+00  0.00000000E+00  0.00000000E+00
  0.00000000E+00  0.00000000E+00  0.00000000E+00
  0.00000000E+00  0.00000000E+00  0.00000000E+00
  0.00000000E+00  0.00000000E+00  0.00000000E+00
  0.00000000E+00  0.00000000E+00  0.00000000E+00
  0.00000000E+00  0.00000000E+00  0.00000000E+00
  0.00000000E+00  0.00000000E+00  0.00000000E+00
  0.00000000E+00  0.00000000E+00  0.00000000E+00
  0.00000000E+00  0.00000000E+00  0.00000000E+00
  0.00000000E+00  0.00000000E+00  0.00000000E+00
  0.00000000E+00  0.00000000E+00  0.00000000E+00
  0.00000000E+00  0.00000000E+00  0.00000000E+00
  0.00000000E+00  0.00000000E+00  0.00000000E+00
  0.00000000E+00  0.00000000E+00  0.00000000E+00
  0.00000000E+00  0.00000000E+00  0.00000000E+00
  0.00000000E+00  0.00000000E+00  0.00000000E+00
  0.00000000E+00  0.00000000E+00  0.00000000E+00
  0.00000000E+00  0.00000000E+00  0.00000000E+00
  0.00000000E+00  0.00000000E+00  0.00000000E+00
  0.00000000E+00  0.00000000E+00  0.00000000E+00
  0.00000000E+00  0.00000000E+00  0.00000000E+00
  0.00000000E+00  0.00000000E+00  0.00000000E+00
  0.00000000E+00  0.00000000E+00  0.00000000E+00
  0.00000000E+00  0.00000000E+00  0.00000000E+00
  0.00000000E+00  0.00000000E+00  0.00000000E+00
  0.00000000E+00  0.00000000E+00  0.00000000E+00
  0.00000000E+00  0.00000000E+00  0.00000000E+00
  0.00000000E+00  0.00000000E+00  0.00000000E+00
  0.00000000E+00  0.00000000E+00  0.00000000E+00
  0.00000000E+00  0.00000000E+00  0.00000000E+00
  0.00000000E+00  0.00000000E+00  0.00000000E+00
  0.00000000E+00  0.00000000E+00  0.00000000E+00
  0.00000000E+00  0.00000000E+00  0.00000000E+00
  0.00000000E+00  0.00000000E+00  0.00000000E+00
  0.00000000E+00  0.00000000E+00  0.00000000E+00
  0.00000000E+00  0.00000000E+00  0.00000000E+00
  0.00000000E+00  0.00000000E+00  0.00000000E+00
  0.00000000E+00  0.00000000E+00  0.00000000E+00
  0.00000000E+00  0.00000000E+00  0.00000000E+00
  0.00000000E+00  0.00000000E+00  0.00000000E+00
  0.00000000E+00  0.00000000E+00  0.00000000E+00
  0.00000000E+00  0.00000000E+00  0.00000000E+00
  0.00000000E+00  0.00000000E+00  0.00000000E+00
  0.00000000E+00  0.00000000E+00  0.00000000E+00
  0.00000000E+00  0.00000000E+00  0.00000000E+00
  0.00000000E+00  0.00000000E+00  0.00000000E+00
  0.00000000E+00  0.00000000E+00  0.00000000E+00
  0.00000000E+00  0.00000000E+00  0.00000000E+00
  0.00000000E+00  0.00000000E+00  0.00000000E+00
  0.00000000E+00  0.00000000E+00  0.00000000E+00
  0.00000000E+00  0.00000000E+00  0.00000000E+00
  0.00000000E+00  0.00000000E+00  0.00000000E+00
  0.00000000E+00  0.00000000E+00  0.00000000E+00
  0.00000000E+00  0.00000000E+00  0.00000000E+00
  0.00000000E+00  0.00000000E+00  0.00000000E+00
  0.00000000E+00  0.00000000E+00  0.00000000E+00
  0.00000000E+00  0.00000000E+00  0.00000000E+00
  0.00000000E+00  0.00000000E+00  0.00000000E+00
  0.00000000E+00  0.00000000E+00  0.00000000E+00
  0.00000000E+00  0.00000000E+00  0.00000000E+00
  0.00000000E+00  0.00000000E+00  0.00000000E+00
  0.00000000E+00  0.00000000E+00  0.00000000E+00
  0.00000000E+00  0.00000000E+00  0.00000000E+00
  0.00000000E+00  0.00000000E+00  0.00000000E+00
  0.00000000E+00  0.00000000E+00  0.00000000E+00
  0.00000000E+00  0.00000000E+00  0.00000000E+00
  0.00000000E+00  0.00000000E+00  0.00000000E+00
  0.00000000E+00  0.00000000E+00  0.00000000E+00
  0.00000000E+00  0.00000000E+00  0.00000000E+00
  0.00000000E+00  0.00000000E+00  0.00000000E+00
  0.00000000E+00  0.00000000E+00  0.00000000E+00
  0.00000000E+00  0.00000000E+00  0.00000000E+00
  0.00000000E+00  0.00000000E+00  0.00000000E+00
  0.00000000E+00  0.00000000E+00  0.00000000E+00
  0.00000000E+00  0.00000000E+00  0.00000000E+00
  0.00000000E+00  0.00000000E+00  0.00000000E+00
  0.00000000E+00  0.00000000E+00  0.00000000E+00
  0.00000000E+00  0.00000000E+00  0.00000000E+00
  0.00000000E+00  0.00000000E+00  0.00000000E+00
  0.00000000E+00  0.00000000E+00  0.00000000E+00
  0.00000000E+00  0.00000000E+00  0.00000000E+00
  0.00000000E+00  0.00000000E+00  0.00000000E+00
  0.00000000E+00  0.00000000E+00  0.00000000E+00
  0.00000000E+00  0.00000000E+00  0.00000000E+00
  0.00000000E+00  0.00000000E+00  0.00000000E+00
  0.00000000E+00  0.00000000E+00  0.00000000E+00
  0.00000000E+00  0.00000000E+00  0.00000000E+00
  0.00000000E+00  0.00000000E+00  0.00000000E+00
  0.00000000E+00  0.00000000E+00  0.00000000E+00
  0.00000000E+00  0.00000000E+00  0.00000000E+00
  0.00000000E+00  0.00000000E+00  0.00000000E+00
  0.00000000E+00  0.00000000E+00  0.00000000E+00
  0.00000000E+00  0.00000000E+00  0.00000000E+00
  0.00000000E+00  0.00000000E+00  0.00000000E+00
  0.00000000E+00  0.00000000E+00  0.00000000E+00
  0.00000000E+00  0.00000000E+00  0.00000000E+00
  0.00000000E+00  0.00000000E+00  0.00000000E+00
  0.00000000E+00  0.00000000E+00  0.00000000E+00
  0.00000000E+00  0.00000000E+00  0.00000000E+00
  0.00000000E+00  0.00000000E+00  0.00000000E+00
  0.00000000E+00  0.00000000E+00  0.00000000E+00
  0.00000000E+00  0.00000000E+00  0.00000000E+00
  0.00000000E+00  0.00000000E+00  0.00000000E+00
  0.00000000E+00  0.00000000E+00  0.00000000E+00
  0.00000000E+00  0.00000000E+00  0.00000000E+00
  0.00000000E+00  0.00000000E+00  0.00000000E+00
  0.00000000E+00  0.00000000E+00  0.00000000E+00
  0.00000000E+00  0.00000000E+00  0.00000000E+00
  0.00000000E+00  0.00000000E+00  0.00000000E+00
  0.00000000E+00  0.00000000E+00  0.00000000E+00
  0.00000000E+00  0.00000000E+00  0.00000000E+00
  0.00000000E+00  0.00000000E+00  0.00000000E+00
  0.00000000E+00  0.00000000E+00  0.00000000E+00
  0.00000000E+00  0.00000000E+00  0.00000000E+00
  0.00000000E+00  0.00000000E+00  0.00000000E+00
  0.00000000E+00  0.00000000E+00  0.00000000E+00
  0.00000000E+00  0.00000000E+00  0.00000000E+00
  0.00000000E+00  0.00000000E+00  0.00000000E+00
  0.00000000E+00  0.00000000E+00  0.00000000E+00
  0.00000000E+00  0.00000000E+00  0.00000000E+00
  0.00000000E+00  0.00000000E+00  0.00000000E+00
  0.00000000E+00  0.00000000E+00  0.00000000E+00
  0.00000000E+00  0.00000000E+00  0.00000000E+00
  0.00000000E+00  0.00000000E+00  0.00000000E+00
  0.00000000E+00  0.00000000E+00  0.00000000E+00
  0.00000000E+00  0.00000000E+00  0.00000000E+00
  0.00000000E+00  0.00000000E+00  0.00000000E+00
  0.00000000E+00  0.00000000E+00  0.00000000E+00
  0.00000000E+00  0.00000000E+00  0.00000000E+00
  0.00000000E+00  0.00000000E+00  0.00000000E+00
  0.00000000E+00  0.00000000E+00  0.00000000E+00
  0.00000000E+00  0.00000000E+00  0.00000000E+00
  0.00000000E+00  0.00000000E+00  0.00000000E+00
  0.00000000E+00  0.00000000E+00  0.00000000E+00
  0.00000000E+00  0.00000000E+00  0.00000000E+00
  0.00000000E+00  0.00000000E+00  0.00000000E+00
  0.00000000E+00  0.00000000E+00  0.00000000E+00
  0.00000000E+00  0.00000000E+00  0.00000000E+00
  0.00000000E+00  0.00000000E+00  0.00000000E+00
  0.00000000E+00  0.00000000E+00  0.00000000E+00
  0.00000000E+00  0.00000000E+00  0.00000000E+00
  0.00000000E+00  0.00000000E+00  0.00000000E+00
  0.00000000E+00  0.00000000E+00  0.00000000E+00
  0.00000000E+00  0.00000000E+00  0.00000000E+00
  0.00000000E+00  0.00000000E+00  0.00000000E+00
  0.00000000E+00  0.00000000E+00  0.00000000E+00
  0.00000000E+00  0.00000000E+00  0.00000000E+00
  0.00000000E+00  0.00000000E+00  0.00000000E+00
  0.00000000E+00  0.00000000E+00  0.00000000E+00
  0.00000000E+00  0.00000000E+00  0.00000000E+00
  0.00000000E+00  0.00000000E+00  0.00000000E+00
  0.00000000E+00  0.00000000E+00  0.00000000E+00
  0.00000000E+00  0.00000000E+00  0.00000000E+00
  0.00000000E+00  0.00000000E+00  0.00000000E+00
  0.00000000E+00  0.00000000E+00  0.00000000E+00
  0.00000000E+00  0.00000000E+00  0.00000000E+00
  0.00000000E+00  0.00000000E+00  0.00000000E+00
  0.00000000E+00  0.00000000E+00  0.00000000E+00
  0.00000000E+00  0.00000000E+00  0.00000000E+00
  0.00000000E+00  0.00000000E+00  0.00000000E+00
  0.00000000E+00  0.00000000E+00  0.00000000E+00
  0.00000000E+00  0.00000000E+00  0.00000000E+00
  0.00000000E+00  0.00000000E+00  0.00000000E+00
  0.00000000E+00  0.00000000E+00  0.00000000E+00
  0.00000000E+00  0.00000000E+00  0.00000000E+00
  0.00000000E+00  0.00000000E+00  0.00000000E+00
  0.00000000E+00  0.00000000E+00  0.00000000E+00
  0.00000000E+00  0.00000000E+00  0.00000000E+00
  0.00000000E+00  0.00000000E+00  0.00000000E+00
  0.00000000E+00  0.00000000E+00  0.00000000E+00
  0.00000000E+00  0.00000000E+00  0.00000000E+00
  0.00000000E+00  0.00000000E+00  0.00000000E+00
  0.00000000E+00  0.00000000E+00  0.00000000E+00
  0.00000000E+00  0.00000000E+00  0.00000000E+00
  0.00000000E+00  0.00000000E+00  0.00000000E+00
  0.00000000E+00  0.00000000E+00  0.00000000E+00
  0.00000000E+00  0.00000000E+00  0.00000000E+00
  0.00000000E+00  0.00000000E+00  0.00000000E+00
  0.00000000E+00  0.00000000E+00  0.00000000E+00
  0.00000000E+00  0.00000000E+00  0.00000000E+00
  0.00000000E+00  0.00000000E+00  0.00000000E+00
  0.00000000E+00  0.00000000E+00  0.00000000E+00
  0.00000000E+00  0.00000000E+00  0.00000000E+00
  0.00000000E+00  0.00000000E+00  0.00000000E+00
  0.00000000E+00  0.00000000E+00  0.00000000E+00
  0.00000000E+00  0.00000000E+00  0.00000000E+00
  0.00000000E+00  0.00000000E+00  0.00000000E+00
  0.00000000E+00  0.00000000E+00  0.00000000E+00
  0.00000000E+00  0.00000000E+00  0.00000000E+00
  0.00000000E+00  0.00000000E+00  0.00000000E+00
  0.00000000E+00  0.00000000E+00  0.00000000E+00
  0.00000000E+00  0.00000000E+00  0.00000000E+00
  0.00000000E+00  0.00000000E+00  0.00000000E+00
  0.00000000E+00  0.00000000E+00  0.00000000E+00
  0.00000000E+00  0.00000000E+00  0.00000000E+00
  0.00000000E+00  0.00000000E+00  0.00000000E+00
  0.00000000E+00  0.00000000E+00  0.00000000E+00
  0.00000000E+00  0.00000000E+00  0.00000000E+00
  0.00000000E+00  0.00000000E+00  0.00000000E+00
  0.00000000E+00  0.00000000E+00  0.00000000E+00
  0.00000000E+00  0.00000000E+00  0.00000000E+00
  0.00000000E+00  0.00000000E+00  0.00000000E+00
  0.00000000E+00  0.00000000E+00  0.00000000E+00
  0.00000000E+00  0.00000000E+00  0.00000000E+00
  0.00000000E+00  0.00000000E+00  0.00000000E+00
  0.00000000E+00  0.00000000E+00  0.00000000E+00
  0.00000000E+00  0.00000000E+00  0.00000000E+00
  0.00000000E+00  0.00000000E+00  0.00000000E+00
  0.00000000E+00  0.00000000E+00  0.00000000E+00
  0.00000000E+00  0.00000000E+00  0.00000000E+00
