Ti-pyrrole-N2-diagonal_nh2              
   1.00000000000000     
     8.5243602164999999   -0.0107083001000000   -0.0000689766000000
    -0.0106888260000000    8.5246561872999997   -0.0000196831000000
    -0.0001569364000000   -0.0000488858000000   19.8407593497000008
   C    N    Ti   H 
    22     3     1     2
Direct
  0.5006359326023865  0.0846384009579916  0.1502098770257067
  0.3553001178721693  0.1660889646526755  0.1496248938506395
  0.6492765202212649  0.1644497188546551  0.1512605903597310
  0.7951741548853620  0.9174562132586244  0.1489056170379137
  0.7968537051853544  0.0803633074076582  0.1500479656606949
  0.9196489561533666  0.2030410190967752  0.1498981080485478
  0.8355101763449269  0.3505989336811684  0.1510735639495001
  0.2042886312147479  0.0829453121030236  0.1487428795327144
  0.0825341261026608  0.2046850289587082  0.1487521065835950
  0.1655723529512502  0.3557940789838049  0.1494044901228332
  0.0840330682665749  0.5010308792060132  0.1499618864362080
  0.1640747755914804  0.6496371321114998  0.1508386338086198
  0.3503381003024174  0.8358893594301863  0.1509356473457718
  0.2027670246113777  0.9199471851458638  0.1495694505518358
  0.0800459654420123  0.7973059593885912  0.1495347915479165
  0.6441177264106245  0.8343942518963002  0.1496293983897732
  0.8338954734561995  0.6446621904221354  0.1495931414406316
  0.9170684680952730  0.7957840931631469  0.1487285951752224
  0.4988322120052166  0.9159451165964475  0.1501539381941772
  0.9153111716740303  0.4992861773894798  0.1500624559078244
  0.6683603699692869  0.6688254595627133  0.1524769458265723
  0.3311056950891136  0.3316478875961992  0.1524456553861928
  0.6743529021512340  0.3256514276900284  0.1540154392960765
  0.3253122372490292  0.6746268604081075  0.1538979796061520
  0.4997008486595922  0.5007005640183009  0.2773612843138003
  0.5000116352840004  0.5000668963076297  0.1819887178258169
  0.5723670987011007  0.5670649495746136  0.3068230093865132
  0.4241531185501622  0.4369169007347669  0.3065628147464635
 
  0.00000000E+00  0.00000000E+00  0.00000000E+00
  0.00000000E+00  0.00000000E+00  0.00000000E+00
  0.00000000E+00  0.00000000E+00  0.00000000E+00
  0.00000000E+00  0.00000000E+00  0.00000000E+00
  0.00000000E+00  0.00000000E+00  0.00000000E+00
  0.00000000E+00  0.00000000E+00  0.00000000E+00
  0.00000000E+00  0.00000000E+00  0.00000000E+00
  0.00000000E+00  0.00000000E+00  0.00000000E+00
  0.00000000E+00  0.00000000E+00  0.00000000E+00
  0.00000000E+00  0.00000000E+00  0.00000000E+00
  0.00000000E+00  0.00000000E+00  0.00000000E+00
  0.00000000E+00  0.00000000E+00  0.00000000E+00
  0.00000000E+00  0.00000000E+00  0.00000000E+00
  0.00000000E+00  0.00000000E+00  0.00000000E+00
  0.00000000E+00  0.00000000E+00  0.00000000E+00
  0.00000000E+00  0.00000000E+00  0.00000000E+00
  0.00000000E+00  0.00000000E+00  0.00000000E+00
  0.00000000E+00  0.00000000E+00  0.00000000E+00
  0.00000000E+00  0.00000000E+00  0.00000000E+00
  0.00000000E+00  0.00000000E+00  0.00000000E+00
  0.00000000E+00  0.00000000E+00  0.00000000E+00
  0.00000000E+00  0.00000000E+00  0.00000000E+00
  0.00000000E+00  0.00000000E+00  0.00000000E+00
  0.00000000E+00  0.00000000E+00  0.00000000E+00
  0.00000000E+00  0.00000000E+00  0.00000000E+00
  0.00000000E+00  0.00000000E+00  0.00000000E+00
  0.00000000E+00  0.00000000E+00  0.00000000E+00
  0.00000000E+00  0.00000000E+00  0.00000000E+00
