Mn-N2-pyrrole_nh2                       
   1.00000000000000     
     8.4758839340000005   -0.0000098688000000   -0.0007410285000000
    -0.0000050203000000    8.4585237323999998    0.0007850000000000
    -0.0017340305000000    0.0018404283000000   19.7580905651999998
   C    N    Mn   H 
    22     3     1     2
Direct
  0.4962360946165366  0.0845497173863662  0.1536161603208260
  0.3497285317781488  0.1651897689304172  0.1535293978222364
  0.6420401823866820  0.1675456199150816  0.1532750757362988
  0.7928985224058535  0.9187086603676320  0.1527089822154402
  0.7928974229691768  0.0812410894047001  0.1527105817680260
  0.9179913899968618  0.2051671767116349  0.1533799607958892
  0.8374098005073978  0.3548488640191584  0.1544009099053512
  0.2017174007316277  0.0823377890096558  0.1532464438000949
  0.0815088834766092  0.2028288207214229  0.1529396930776878
  0.1686264272907127  0.3523099543903647  0.1529807566407106
  0.0897625110391380  0.4999736892351873  0.1535190754214588
  0.1686261523031267  0.6476371241526080  0.1529606362480016
  0.3497290567298353  0.8347463705125431  0.1535168906582378
  0.2017158855219344  0.9176137756003595  0.1532406072083106
  0.0815107050507037  0.7971211722375763  0.1529275694181663
  0.6420449430596123  0.8323973041634565  0.1532664737717092
  0.8374127869843467  0.6450970968207630  0.1543917657652203
  0.9179958640617552  0.7947768779187011  0.1533734928696427
  0.4962404451017704  0.9153824474007144  0.1536129788677340
  0.9212617582587634  0.4999708806299690  0.1544076925822226
  0.6678557222580347  0.3340954713146593  0.1549420217269808
  0.6678653407541039  0.6658423068377588  0.1549211076734628
  0.3278573811313298  0.3278694314942415  0.1533377402040392
  0.3278525382476347  0.6720807287034464  0.1533099577698560
  0.5081690679847258  0.5002363917643602  0.2592984130797693
  0.5060337293023947  0.4999694518845543  0.1672831692559709
  0.6055775154203447  0.4998183953202381  0.2892243294309223
  0.4030226365822916  0.4998040027908122  0.2842695958020976
 
  0.00000000E+00  0.00000000E+00  0.00000000E+00
  0.00000000E+00  0.00000000E+00  0.00000000E+00
  0.00000000E+00  0.00000000E+00  0.00000000E+00
  0.00000000E+00  0.00000000E+00  0.00000000E+00
  0.00000000E+00  0.00000000E+00  0.00000000E+00
  0.00000000E+00  0.00000000E+00  0.00000000E+00
  0.00000000E+00  0.00000000E+00  0.00000000E+00
  0.00000000E+00  0.00000000E+00  0.00000000E+00
  0.00000000E+00  0.00000000E+00  0.00000000E+00
  0.00000000E+00  0.00000000E+00  0.00000000E+00
  0.00000000E+00  0.00000000E+00  0.00000000E+00
  0.00000000E+00  0.00000000E+00  0.00000000E+00
  0.00000000E+00  0.00000000E+00  0.00000000E+00
  0.00000000E+00  0.00000000E+00  0.00000000E+00
  0.00000000E+00  0.00000000E+00  0.00000000E+00
  0.00000000E+00  0.00000000E+00  0.00000000E+00
  0.00000000E+00  0.00000000E+00  0.00000000E+00
  0.00000000E+00  0.00000000E+00  0.00000000E+00
  0.00000000E+00  0.00000000E+00  0.00000000E+00
  0.00000000E+00  0.00000000E+00  0.00000000E+00
  0.00000000E+00  0.00000000E+00  0.00000000E+00
  0.00000000E+00  0.00000000E+00  0.00000000E+00
  0.00000000E+00  0.00000000E+00  0.00000000E+00
  0.00000000E+00  0.00000000E+00  0.00000000E+00
  0.00000000E+00  0.00000000E+00  0.00000000E+00
  0.00000000E+00  0.00000000E+00  0.00000000E+00
  0.00000000E+00  0.00000000E+00  0.00000000E+00
  0.00000000E+00  0.00000000E+00  0.00000000E+00
