Cr-N1-pyrrole_nh2                       
   1.00000000000000     
     8.4649255284000002    0.0000000000000000    0.0000000000000000
     0.0000000000000000    8.4648657355000001    0.0000000000000000
     0.0000000000000000    0.0000000000000000   19.8713392818999992
   C    N    Cr   H 
    23     2     1     2
Direct
  0.5027330756715793  0.0820809516249264  0.1544857726807921
  0.3574290085018970  0.1659596202797687  0.1546567785797298
  0.6465301608443473  0.1653861222637912  0.1551767962641413
  0.7988925226025606  0.9193132254695924  0.1538426275248742
  0.7960489729062896  0.0842878300457765  0.1538836914305921
  0.9188355850323342  0.2075698942495786  0.1520032910837664
  0.8325054557690440  0.3587159215657973  0.1522427256290027
  0.2077222840679199  0.0818403308464047  0.1533077609636200
  0.0826104997068523  0.2066853156661773  0.1521316958605842
  0.1670962198124147  0.3566376249814716  0.1523071752588344
  0.0828644903904337  0.5018603304141462  0.1509549725451763
  0.1660461595117304  0.6454594636904641  0.1524372129932539
  0.3593522014829379  0.8319758443234689  0.1540020484327222
  0.2086617144034202  0.9179557172705839  0.1527878126667938
  0.0849217567181435  0.7952513984998714  0.1522093347726792
  0.6509363247966120  0.8342458877339383  0.1550382947367646
  0.8350504669976935  0.6498739000981437  0.1528355880248445
  0.9202122735003981  0.7982549009542730  0.1524847967243814
  0.5040754907370206  0.9140196403872659  0.1543112779937122
  0.9149123549368879  0.5032100224720591  0.1510913257038906
  0.6662080324749705  0.3357948135511570  0.1586421242182824
  0.3358081600884329  0.3354573028921884  0.1571484358328631
  0.3359053157413802  0.6649250906992606  0.1581713497544582
  0.6733899228040628  0.6719955645926379  0.1566421885872821
  0.4895616073242157  0.4967600118245575  0.2725249144332639
  0.5014068405365772  0.5015554501140044  0.1823842637206119
  0.5609444896661399  0.4265583380566467  0.3011342375544021
  0.3982675348797948  0.5441395857041681  0.2993082468848238
 
  0.00000000E+00  0.00000000E+00  0.00000000E+00
  0.00000000E+00  0.00000000E+00  0.00000000E+00
  0.00000000E+00  0.00000000E+00  0.00000000E+00
  0.00000000E+00  0.00000000E+00  0.00000000E+00
  0.00000000E+00  0.00000000E+00  0.00000000E+00
  0.00000000E+00  0.00000000E+00  0.00000000E+00
  0.00000000E+00  0.00000000E+00  0.00000000E+00
  0.00000000E+00  0.00000000E+00  0.00000000E+00
  0.00000000E+00  0.00000000E+00  0.00000000E+00
  0.00000000E+00  0.00000000E+00  0.00000000E+00
  0.00000000E+00  0.00000000E+00  0.00000000E+00
  0.00000000E+00  0.00000000E+00  0.00000000E+00
  0.00000000E+00  0.00000000E+00  0.00000000E+00
  0.00000000E+00  0.00000000E+00  0.00000000E+00
  0.00000000E+00  0.00000000E+00  0.00000000E+00
  0.00000000E+00  0.00000000E+00  0.00000000E+00
  0.00000000E+00  0.00000000E+00  0.00000000E+00
  0.00000000E+00  0.00000000E+00  0.00000000E+00
  0.00000000E+00  0.00000000E+00  0.00000000E+00
  0.00000000E+00  0.00000000E+00  0.00000000E+00
  0.00000000E+00  0.00000000E+00  0.00000000E+00
  0.00000000E+00  0.00000000E+00  0.00000000E+00
  0.00000000E+00  0.00000000E+00  0.00000000E+00
  0.00000000E+00  0.00000000E+00  0.00000000E+00
  0.00000000E+00  0.00000000E+00  0.00000000E+00
  0.00000000E+00  0.00000000E+00  0.00000000E+00
  0.00000000E+00  0.00000000E+00  0.00000000E+00
  0.00000000E+00  0.00000000E+00  0.00000000E+00
