V-pyrridine-N3_nh2                      
   1.00000000000000     
    12.5094322066999997    0.0000000000000000    0.0000000000000000
     0.0000000000000000   12.8246973105999995    0.0000000000000000
     0.0000000000000000    0.0000000000000000   19.8713392818999992
   C    N    V    H 
    55     4     1     2
Direct
  0.0524650695333861  0.0476737202522687  0.1558104468001259
  0.1531888342439312  0.1030583858624740  0.1560637596879747
  0.1529091214932662  0.2141684626143304  0.1560351372609438
  0.0527927102152838  0.2692108799339638  0.1551574407061097
  0.2535672303139661  0.0482333075076280  0.1562901811991677
  0.3539014012218180  0.1042163945001781  0.1567968680243435
  0.3534522906651774  0.2161417622979999  0.1574686841178882
  0.2524642526698168  0.2701521626364292  0.1570260227494865
  0.4540275518657139  0.0481762049900710  0.1575928615959894
  0.5534669235559594  0.1058598977845286  0.1587447857761259
  0.5539839824872507  0.2190722319789393  0.1601964397839507
  0.4529436119338069  0.2754271781349493  0.1597357606178464
  0.6518820694435922  0.0474213205338673  0.1581052158344948
  0.7517152226286070  0.1034705862135105  0.1570573260911127
  0.7527703260573695  0.2154019490955202  0.1572347834353657
  0.6549112203405969  0.2748363845134190  0.1600249384033677
  0.8517684322164916  0.0474667740884955  0.1563109267008378
  0.9522755320367431  0.1024625916356766  0.1557864154494745
  0.9529217417567740  0.2137852383432328  0.1553671761522016
  0.8538172816398670  0.2691837437470867  0.1557724758971360
  0.0522659574035757  0.3802552474425251  0.1547682341474041
  0.1506081816873445  0.4367897825199536  0.1560471391603855
  0.1502114773163331  0.5479666145850182  0.1558384911116427
  0.0518968735849206  0.6039025137300458  0.1546442289412320
  0.2498791047471019  0.3818015395039877  0.1573945244519422
  0.3477156526761183  0.4383723927300272  0.1590047450321521
  0.3462985002645415  0.5501286751203169  0.1589894877890010
  0.2488122466173880  0.6045911637382140  0.1570238494650356
  0.7564167471502663  0.4354594481336649  0.1571470248207427
  0.7565652392692570  0.5471528606895889  0.1566008829944896
  0.8548588461079877  0.3804567655518550  0.1550958134992338
  0.9537313788466620  0.4362004589198838  0.1542838997273014
  0.9536136844823393  0.5474646493815346  0.1542653868676848
  0.8546792840026960  0.6027614955700153  0.1548741474618330
  0.0518870153062648  0.7150508814733240  0.1549498804362229
  0.1516401551462384  0.7709129122546418  0.1558036861817441
  0.0521859446359029  0.9369253323162013  0.1557446715042083
  0.2506289222781807  0.7157235708621502  0.1567547594195513
  0.3518466416930817  0.7686691671125984  0.1573077632667463
  0.3533279989554769  0.8804023063364512  0.1566018650727232
  0.2533408401643395  0.9365369333456276  0.1561658531576130
  0.4497784880624123  0.7082008036638704  0.1600870141969467
  0.5521270523352827  0.7627444961450635  0.1600907942590539
  0.5524001218381500  0.8767367855027042  0.1587210398588891
  0.4538317448078423  0.9355547387754553  0.1575710371530682
  0.6537675967967186  0.7072351712086844  0.1592297696962909
  0.7519903415798709  0.7674504083454715  0.1569479926125365
  0.7512139618376161  0.8791778840556346  0.1570816398441871
  0.6513983802129945  0.9347860045486738  0.1581007942416569
  0.8530186241751140  0.7140261385936049  0.1554734458667013
  0.9522682486190470  0.7699728996568644  0.1551759101688741
  0.8514842152347507  0.9357463417255735  0.1563368624789804
  0.1525406765418411  0.8818862678958768  0.1558917916384947
  0.9518828358623417  0.8813050507111885  0.1557261596700823
  0.4479900398087343  0.3863389956990223  0.1624321154070759
  0.4440148260845046  0.6008700136110571  0.1628867666682866
  0.6590613801762996  0.3835469099722638  0.1625205166096597
  0.6589985147177264  0.5990684943702095  0.1607699698707144
  0.5468661944038092  0.4903398433850487  0.2900826311189909
  0.5529599306192147  0.4918469053413561  0.1968738337025066
  0.6036003976414378  0.5224914635169519  0.3207263635357225
  0.4898736576736133  0.4538036164453250  0.3183091340571489
 
  0.00000000E+00  0.00000000E+00  0.00000000E+00
  0.00000000E+00  0.00000000E+00  0.00000000E+00
  0.00000000E+00  0.00000000E+00  0.00000000E+00
  0.00000000E+00  0.00000000E+00  0.00000000E+00
  0.00000000E+00  0.00000000E+00  0.00000000E+00
  0.00000000E+00  0.00000000E+00  0.00000000E+00
  0.00000000E+00  0.00000000E+00  0.00000000E+00
  0.00000000E+00  0.00000000E+00  0.00000000E+00
  0.00000000E+00  0.00000000E+00  0.00000000E+00
  0.00000000E+00  0.00000000E+00  0.00000000E+00
  0.00000000E+00  0.00000000E+00  0.00000000E+00
  0.00000000E+00  0.00000000E+00  0.00000000E+00
  0.00000000E+00  0.00000000E+00  0.00000000E+00
  0.00000000E+00  0.00000000E+00  0.00000000E+00
  0.00000000E+00  0.00000000E+00  0.00000000E+00
  0.00000000E+00  0.00000000E+00  0.00000000E+00
  0.00000000E+00  0.00000000E+00  0.00000000E+00
  0.00000000E+00  0.00000000E+00  0.00000000E+00
  0.00000000E+00  0.00000000E+00  0.00000000E+00
  0.00000000E+00  0.00000000E+00  0.00000000E+00
  0.00000000E+00  0.00000000E+00  0.00000000E+00
  0.00000000E+00  0.00000000E+00  0.00000000E+00
  0.00000000E+00  0.00000000E+00  0.00000000E+00
  0.00000000E+00  0.00000000E+00  0.00000000E+00
  0.00000000E+00  0.00000000E+00  0.00000000E+00
  0.00000000E+00  0.00000000E+00  0.00000000E+00
  0.00000000E+00  0.00000000E+00  0.00000000E+00
  0.00000000E+00  0.00000000E+00  0.00000000E+00
  0.00000000E+00  0.00000000E+00  0.00000000E+00
  0.00000000E+00  0.00000000E+00  0.00000000E+00
  0.00000000E+00  0.00000000E+00  0.00000000E+00
  0.00000000E+00  0.00000000E+00  0.00000000E+00
  0.00000000E+00  0.00000000E+00  0.00000000E+00
  0.00000000E+00  0.00000000E+00  0.00000000E+00
  0.00000000E+00  0.00000000E+00  0.00000000E+00
  0.00000000E+00  0.00000000E+00  0.00000000E+00
  0.00000000E+00  0.00000000E+00  0.00000000E+00
  0.00000000E+00  0.00000000E+00  0.00000000E+00
  0.00000000E+00  0.00000000E+00  0.00000000E+00
  0.00000000E+00  0.00000000E+00  0.00000000E+00
  0.00000000E+00  0.00000000E+00  0.00000000E+00
  0.00000000E+00  0.00000000E+00  0.00000000E+00
  0.00000000E+00  0.00000000E+00  0.00000000E+00
  0.00000000E+00  0.00000000E+00  0.00000000E+00
  0.00000000E+00  0.00000000E+00  0.00000000E+00
  0.00000000E+00  0.00000000E+00  0.00000000E+00
  0.00000000E+00  0.00000000E+00  0.00000000E+00
  0.00000000E+00  0.00000000E+00  0.00000000E+00
  0.00000000E+00  0.00000000E+00  0.00000000E+00
  0.00000000E+00  0.00000000E+00  0.00000000E+00
  0.00000000E+00  0.00000000E+00  0.00000000E+00
  0.00000000E+00  0.00000000E+00  0.00000000E+00
  0.00000000E+00  0.00000000E+00  0.00000000E+00
  0.00000000E+00  0.00000000E+00  0.00000000E+00
  0.00000000E+00  0.00000000E+00  0.00000000E+00
  0.00000000E+00  0.00000000E+00  0.00000000E+00
  0.00000000E+00  0.00000000E+00  0.00000000E+00
  0.00000000E+00  0.00000000E+00  0.00000000E+00
  0.00000000E+00  0.00000000E+00  0.00000000E+00
  0.00000000E+00  0.00000000E+00  0.00000000E+00
  0.00000000E+00  0.00000000E+00  0.00000000E+00
  0.00000000E+00  0.00000000E+00  0.00000000E+00
