Fe-pyridine-N4_nh2                      
   1.00000000000000     
    12.4810486150000006    0.0000000000000000    0.0000000000000000
     0.0000000000000000   12.7441516669000006    0.0000000000000000
     0.0000000000000000    0.0000000000000000   20.0000000000000000
   C    N    Fe   H 
    54     5     1     2
Direct
  0.0521887889375786  0.0472795825052076  0.1583186498210514
  0.1527318556489941  0.1022722976586545  0.1584141465047398
  0.1520320337858531  0.2134810668495867  0.1583975905184300
  0.0522025814182787  0.2687305560398695  0.1584197852348609
  0.2535802720960826  0.0478198168279989  0.1584483252633180
  0.3536446512765997  0.1042030038707712  0.1581668599237460
  0.3525080167238505  0.2164658230984630  0.1578344551068205
  0.2511788749782670  0.2692441212851818  0.1580244784957837
  0.4538019310725440  0.0484672348285250  0.1585034279658958
  0.5522097081554775  0.1076204705072521  0.1586717635096188
  0.5522189270738013  0.2221871678696982  0.1588815357790789
  0.4504129844618307  0.2774844364916129  0.1583746274765244
  0.6506088120097534  0.0484726325092369  0.1585287291135443
  0.7507709383999693  0.1042155509242583  0.1581875998785536
  0.7519350960616855  0.2164688713615089  0.1578513143524009
  0.6540380553666622  0.2774794171003455  0.1583831864560932
  0.8508178531090577  0.0478276350719562  0.1584713929378284
  0.9516563752522479  0.1022923972400304  0.1584323509919051
  0.9523735633350059  0.2135035452128352  0.1584069935759619
  0.8532524595398179  0.2692625987772169  0.1580359408902905
  0.0522030756803937  0.3799241401007039  0.1585043632779110
  0.1503920084697606  0.4362428745422677  0.1583331153461217
  0.1503892154796561  0.5475005048725428  0.1583221033168059
  0.0522004185363539  0.6038275521607092  0.1584933706658314
  0.2491758052244992  0.3805909003591643  0.1577422589666456
  0.3468331624549706  0.4360223683898516  0.1571882112292068
  0.3468332552570277  0.5477176846981624  0.1571782979940227
  0.2491728722496388  0.6031414234375717  0.1577264539925037
  0.7575844746048678  0.4360329858209204  0.1571562191681770
  0.7575779707637909  0.5477232949747088  0.1571566269830993
  0.8552381814329034  0.3806210734605643  0.1577344630705632
  0.9540236724845992  0.4362515295321884  0.1583269070191252
  0.9540195614580577  0.5475088781051567  0.1583229466175808
  0.8552366945694939  0.6031362269664360  0.1577261945813038
  0.0521929746119492  0.7150167399206934  0.1583987658259266
  0.1520317314042637  0.7702456549139864  0.1583765189250633
  0.0521895555672191  0.9364543331008973  0.1583109737504014
  0.2511773893757773  0.7144970571002939  0.1580094759199419
  0.3524980322833965  0.7672841581803302  0.1578216554609977
  0.3536423354481559  0.8795499758620655  0.1581578355899881
  0.2535762314317421  0.9359110445679486  0.1584437344441179
  0.4503952112704220  0.7062672145997791  0.1583599719940681
  0.5521995649791162  0.7615601363933725  0.1588612544903403
  0.5522063214072724  0.8761280217980461  0.1586545140122443
  0.4537989495086504  0.9352757714087300  0.1584959511712821
  0.6540223669566977  0.7062790935171163  0.1583678478028907
  0.7519192470597355  0.7672901336923194  0.1578400873825423
  0.7507655532636001  0.8795521736254388  0.1581835056871392
  0.6506078429574399  0.9352854087603961  0.1585263381441666
  0.8532390877392442  0.7144915651342488  0.1580145196721124
  0.9523669506443614  0.7702471617417235  0.1583836725213540
  0.8508143022455036  0.9359225323955984  0.1584719595339029
  0.1527290313468053  0.8814547970636302  0.1584003617404585
  0.9516546756371200  0.8814497776613224  0.1584181867289396
  0.4449145379812580  0.3860098750609089  0.1579414842578488
  0.4449061607880856  0.5977433587840191  0.1579317314262889
  0.6595273133882853  0.3860020690712507  0.1579333708590100
  0.6595251849851425  0.5977557819765013  0.1579276091285338
  0.5522184584896255  0.4918694258428241  0.2591756010400020
  0.5522278470251278  0.4918848819131860  0.1690886916699937
  0.6208310102952911  0.4918965463226986  0.2867952986202258
  0.4835754063239152  0.4918954582586170  0.2867693422148431
 
  0.00000000E+00  0.00000000E+00  0.00000000E+00
  0.00000000E+00  0.00000000E+00  0.00000000E+00
  0.00000000E+00  0.00000000E+00  0.00000000E+00
  0.00000000E+00  0.00000000E+00  0.00000000E+00
  0.00000000E+00  0.00000000E+00  0.00000000E+00
  0.00000000E+00  0.00000000E+00  0.00000000E+00
  0.00000000E+00  0.00000000E+00  0.00000000E+00
  0.00000000E+00  0.00000000E+00  0.00000000E+00
  0.00000000E+00  0.00000000E+00  0.00000000E+00
  0.00000000E+00  0.00000000E+00  0.00000000E+00
  0.00000000E+00  0.00000000E+00  0.00000000E+00
  0.00000000E+00  0.00000000E+00  0.00000000E+00
  0.00000000E+00  0.00000000E+00  0.00000000E+00
  0.00000000E+00  0.00000000E+00  0.00000000E+00
  0.00000000E+00  0.00000000E+00  0.00000000E+00
  0.00000000E+00  0.00000000E+00  0.00000000E+00
  0.00000000E+00  0.00000000E+00  0.00000000E+00
  0.00000000E+00  0.00000000E+00  0.00000000E+00
  0.00000000E+00  0.00000000E+00  0.00000000E+00
  0.00000000E+00  0.00000000E+00  0.00000000E+00
  0.00000000E+00  0.00000000E+00  0.00000000E+00
  0.00000000E+00  0.00000000E+00  0.00000000E+00
  0.00000000E+00  0.00000000E+00  0.00000000E+00
  0.00000000E+00  0.00000000E+00  0.00000000E+00
  0.00000000E+00  0.00000000E+00  0.00000000E+00
  0.00000000E+00  0.00000000E+00  0.00000000E+00
  0.00000000E+00  0.00000000E+00  0.00000000E+00
  0.00000000E+00  0.00000000E+00  0.00000000E+00
  0.00000000E+00  0.00000000E+00  0.00000000E+00
  0.00000000E+00  0.00000000E+00  0.00000000E+00
  0.00000000E+00  0.00000000E+00  0.00000000E+00
  0.00000000E+00  0.00000000E+00  0.00000000E+00
  0.00000000E+00  0.00000000E+00  0.00000000E+00
  0.00000000E+00  0.00000000E+00  0.00000000E+00
  0.00000000E+00  0.00000000E+00  0.00000000E+00
  0.00000000E+00  0.00000000E+00  0.00000000E+00
  0.00000000E+00  0.00000000E+00  0.00000000E+00
  0.00000000E+00  0.00000000E+00  0.00000000E+00
  0.00000000E+00  0.00000000E+00  0.00000000E+00
  0.00000000E+00  0.00000000E+00  0.00000000E+00
  0.00000000E+00  0.00000000E+00  0.00000000E+00
  0.00000000E+00  0.00000000E+00  0.00000000E+00
  0.00000000E+00  0.00000000E+00  0.00000000E+00
  0.00000000E+00  0.00000000E+00  0.00000000E+00
  0.00000000E+00  0.00000000E+00  0.00000000E+00
  0.00000000E+00  0.00000000E+00  0.00000000E+00
  0.00000000E+00  0.00000000E+00  0.00000000E+00
  0.00000000E+00  0.00000000E+00  0.00000000E+00
  0.00000000E+00  0.00000000E+00  0.00000000E+00
  0.00000000E+00  0.00000000E+00  0.00000000E+00
  0.00000000E+00  0.00000000E+00  0.00000000E+00
  0.00000000E+00  0.00000000E+00  0.00000000E+00
  0.00000000E+00  0.00000000E+00  0.00000000E+00
  0.00000000E+00  0.00000000E+00  0.00000000E+00
  0.00000000E+00  0.00000000E+00  0.00000000E+00
  0.00000000E+00  0.00000000E+00  0.00000000E+00
  0.00000000E+00  0.00000000E+00  0.00000000E+00
  0.00000000E+00  0.00000000E+00  0.00000000E+00
  0.00000000E+00  0.00000000E+00  0.00000000E+00
  0.00000000E+00  0.00000000E+00  0.00000000E+00
  0.00000000E+00  0.00000000E+00  0.00000000E+00
  0.00000000E+00  0.00000000E+00  0.00000000E+00
