Mn-pyrridine-N3_nh2                     
   1.00000000000000     
    12.4968983727000005    0.0000000000000000    0.0000000000000000
     0.0000000000000000   12.7922896308999992    0.0000000000000000
     0.0000000000000000    0.0000000000000000   19.8713392818999992
   C    N    Mn   H 
    55     4     1     2
Direct
  0.0522570297322209  0.0486649428501920  0.1572298597209993
  0.1528817685478306  0.1037996830123206  0.1576463295644472
  0.1524660482914821  0.2149384286322214  0.1578272352913941
  0.0523903989881673  0.2700509408905427  0.1573972144675047
  0.2532471604008202  0.0489022800756290  0.1580766871944646
  0.3534718562690630  0.1047393537834971  0.1592245518096807
  0.3527681955506538  0.2166145645978594  0.1593937511619788
  0.2519500435957843  0.2706791152583916  0.1583308849586194
  0.4537094973553540  0.0489236452238551  0.1602713393010272
  0.5531543748027345  0.1066257201963867  0.1613678893806117
  0.5534748030229889  0.2197840472893468  0.1624208299267756
  0.4521148274082877  0.2755147048424689  0.1619917216863004
  0.6516691733551195  0.0483554966765516  0.1603956342757322
  0.7514946717655034  0.1043853900182152  0.1595926783340621
  0.7524144630364809  0.2163950888085402  0.1598097701412173
  0.6543536580963840  0.2755729739053308  0.1615791644378989
  0.8516403403167112  0.0486433812787834  0.1583067793919817
  0.9520919569112429  0.1034572288373963  0.1578167075644555
  0.9525487314825147  0.2148387106038956  0.1579071310077441
  0.8533762414679075  0.2702365615233823  0.1583950370456303
  0.0518071859029301  0.3812472972347719  0.1566280197382711
  0.1502192602691578  0.4375146009760892  0.1566177758691490
  0.1500691142114461  0.5487933291413096  0.1561682204413291
  0.0518550574363236  0.6048086933097089  0.1554262010194926
  0.2493431985897721  0.3822900448566405  0.1577550308843383
  0.3469123530149017  0.4387925877124476  0.1593893615797958
  0.3459764384948840  0.5507003303964267  0.1585105152962977
  0.2486421894165198  0.6053264586510888  0.1568198917368678
  0.7560621417010283  0.4368192785240546  0.1577528907084265
  0.7566371126816716  0.5491241236701314  0.1564386299660751
  0.8543677502865957  0.3816233234185548  0.1572728061750359
  0.9533129559650102  0.4372712000301592  0.1562215891401707
  0.9535769069473471  0.5486030359468796  0.1553531003395967
  0.8549982798277893  0.6041149136603373  0.1552166414821236
  0.0520243395928519  0.7160937948966761  0.1554242654956890
  0.1518137654663618  0.7717217418306236  0.1559105862995396
  0.0522376243733627  0.9378011913914823  0.1565065855434656
  0.2507389536231393  0.7164556467051373  0.1565692747583954
  0.3520124254971728  0.7692251665518950  0.1576238377375488
  0.3533189348887412  0.8811326284294759  0.1580135505119369
  0.2533123224256257  0.9372170302439518  0.1574449128553275
  0.4500101289289302  0.7087584128629074  0.1595360593718971
  0.5522887582808577  0.7635443509499673  0.1599032662702895
  0.5523777667530606  0.8774414149082193  0.1598739277137455
  0.4536895723327347  0.9362741762545447  0.1595408745191187
  0.6546992182351585  0.7088184928781920  0.1586231079122425
  0.7526002815164047  0.7690505996663812  0.1568934284897902
  0.7514136875562796  0.8806276270947231  0.1578903897106926
  0.6513515128160539  0.9357177001078794  0.1595626997604350
  0.8533333254852241  0.7153660065586394  0.1556845230435876
  0.9525711949827904  0.7711673488643220  0.1556765552623254
  0.8515490467623636  0.9369644484355393  0.1574194887843793
  0.1525517872141649  0.8827480184490274  0.1563728840086477
  0.9519371554684652  0.8824713382881149  0.1563283887983357
  0.4463750809094384  0.3859213961226669  0.1639037905914759
  0.4436611421158747  0.6011219090502350  0.1605796241647059
  0.6586056740887485  0.3845155810128103  0.1611107648027970
  0.6604684581771132  0.6016859925320063  0.1592857593979115
  0.5518966388249639  0.4937922688762869  0.2794912872259919
  0.5520947375588486  0.4912102734322127  0.1843299876513317
  0.6159692989889386  0.4557138290365733  0.3006360518471258
  0.4847132449117593  0.4629930218184504  0.3016291734291858
 
  0.00000000E+00  0.00000000E+00  0.00000000E+00
  0.00000000E+00  0.00000000E+00  0.00000000E+00
  0.00000000E+00  0.00000000E+00  0.00000000E+00
  0.00000000E+00  0.00000000E+00  0.00000000E+00
  0.00000000E+00  0.00000000E+00  0.00000000E+00
  0.00000000E+00  0.00000000E+00  0.00000000E+00
  0.00000000E+00  0.00000000E+00  0.00000000E+00
  0.00000000E+00  0.00000000E+00  0.00000000E+00
  0.00000000E+00  0.00000000E+00  0.00000000E+00
  0.00000000E+00  0.00000000E+00  0.00000000E+00
  0.00000000E+00  0.00000000E+00  0.00000000E+00
  0.00000000E+00  0.00000000E+00  0.00000000E+00
  0.00000000E+00  0.00000000E+00  0.00000000E+00
  0.00000000E+00  0.00000000E+00  0.00000000E+00
  0.00000000E+00  0.00000000E+00  0.00000000E+00
  0.00000000E+00  0.00000000E+00  0.00000000E+00
  0.00000000E+00  0.00000000E+00  0.00000000E+00
  0.00000000E+00  0.00000000E+00  0.00000000E+00
  0.00000000E+00  0.00000000E+00  0.00000000E+00
  0.00000000E+00  0.00000000E+00  0.00000000E+00
  0.00000000E+00  0.00000000E+00  0.00000000E+00
  0.00000000E+00  0.00000000E+00  0.00000000E+00
  0.00000000E+00  0.00000000E+00  0.00000000E+00
  0.00000000E+00  0.00000000E+00  0.00000000E+00
  0.00000000E+00  0.00000000E+00  0.00000000E+00
  0.00000000E+00  0.00000000E+00  0.00000000E+00
  0.00000000E+00  0.00000000E+00  0.00000000E+00
  0.00000000E+00  0.00000000E+00  0.00000000E+00
  0.00000000E+00  0.00000000E+00  0.00000000E+00
  0.00000000E+00  0.00000000E+00  0.00000000E+00
  0.00000000E+00  0.00000000E+00  0.00000000E+00
  0.00000000E+00  0.00000000E+00  0.00000000E+00
  0.00000000E+00  0.00000000E+00  0.00000000E+00
  0.00000000E+00  0.00000000E+00  0.00000000E+00
  0.00000000E+00  0.00000000E+00  0.00000000E+00
  0.00000000E+00  0.00000000E+00  0.00000000E+00
  0.00000000E+00  0.00000000E+00  0.00000000E+00
  0.00000000E+00  0.00000000E+00  0.00000000E+00
  0.00000000E+00  0.00000000E+00  0.00000000E+00
  0.00000000E+00  0.00000000E+00  0.00000000E+00
  0.00000000E+00  0.00000000E+00  0.00000000E+00
  0.00000000E+00  0.00000000E+00  0.00000000E+00
  0.00000000E+00  0.00000000E+00  0.00000000E+00
  0.00000000E+00  0.00000000E+00  0.00000000E+00
  0.00000000E+00  0.00000000E+00  0.00000000E+00
  0.00000000E+00  0.00000000E+00  0.00000000E+00
  0.00000000E+00  0.00000000E+00  0.00000000E+00
  0.00000000E+00  0.00000000E+00  0.00000000E+00
  0.00000000E+00  0.00000000E+00  0.00000000E+00
  0.00000000E+00  0.00000000E+00  0.00000000E+00
  0.00000000E+00  0.00000000E+00  0.00000000E+00
  0.00000000E+00  0.00000000E+00  0.00000000E+00
  0.00000000E+00  0.00000000E+00  0.00000000E+00
  0.00000000E+00  0.00000000E+00  0.00000000E+00
  0.00000000E+00  0.00000000E+00  0.00000000E+00
  0.00000000E+00  0.00000000E+00  0.00000000E+00
  0.00000000E+00  0.00000000E+00  0.00000000E+00
  0.00000000E+00  0.00000000E+00  0.00000000E+00
  0.00000000E+00  0.00000000E+00  0.00000000E+00
  0.00000000E+00  0.00000000E+00  0.00000000E+00
  0.00000000E+00  0.00000000E+00  0.00000000E+00
  0.00000000E+00  0.00000000E+00  0.00000000E+00
