Ti-pyrridine-N2_nh2                     
   1.00000000000000     
    12.4564545131000006    0.0000000000000000    0.0000000000000000
     0.0000000000000000   12.8189770080999992    0.0000000000000000
     0.0000000000000000    0.0000000000000000   19.8713392818999992
   C    N    Ti   H 
    56     3     1     2
Direct
  0.0520611247801420  0.0473203505442020  0.1586198432389731
  0.1523393711369966  0.1023264662709139  0.1577741335445256
  0.1518653006414766  0.2132455832949584  0.1573258301370242
  0.0521349998650606  0.2687400869561157  0.1575931039529069
  0.2528724877315230  0.0475040802066713  0.1571979120508703
  0.3528141147781099  0.1031763032384216  0.1573043565086819
  0.3520121051434315  0.2148587767539367  0.1576999224061457
  0.2512791426096147  0.2687459217099184  0.1572418891366976
  0.4534118750270327  0.0479400438990286  0.1580460752918626
  0.5531000630446643  0.1058134088675660  0.1586957704748290
  0.5531684600949266  0.2182633596836838  0.1601285619410702
  0.4513052519229857  0.2734425606805893  0.1605408247846448
  0.6520267536941511  0.0478950805232004  0.1581790477696317
  0.7519129108438899  0.1033723521916085  0.1584360850415064
  0.7528881948648479  0.2149802950720437  0.1585252879775735
  0.6545829164356801  0.2737595038785296  0.1594929835124752
  0.8519042863890849  0.0476098984787405  0.1590338165424439
  0.9521299294336242  0.1024147985619767  0.1591582382091019
  0.9526924235306207  0.2136585815450351  0.1587415736907872
  0.8533534786866641  0.2693037769568302  0.1587625524574527
  0.0515152346786060  0.3803576224825237  0.1569460447538312
  0.1497862061845092  0.4361329106597030  0.1565237356850379
  0.1497879839523822  0.5476217287181971  0.1565073696320907
  0.0515196926700622  0.6033985685719491  0.1569107406585857
  0.2486448116613359  0.3800284068655822  0.1573923626500547
  0.3464183728066274  0.4351486209355531  0.1601481187014870
  0.3464236833660579  0.5485888829337014  0.1601510917212855
  0.2486545322595129  0.6036938970255586  0.1573811534481946
  0.7553422392606596  0.4350100058461267  0.1583032955316404
  0.7553558550942056  0.5487332997064975  0.1582654471681376
  0.8543899081689238  0.3807266061985903  0.1582683716577735
  0.9530970272318698  0.4362573018110382  0.1576352565648716
  0.9531045727378759  0.5474876916292234  0.1575913731561829
  0.8543982255586197  0.6030127368745563  0.1581812684808684
  0.0521310840938687  0.7150151395638255  0.1575325028605520
  0.1518804155749351  0.7704942208658847  0.1572853115685605
  0.0520723604044687  0.9364176845207604  0.1586008978854733
  0.2512921391650373  0.7149688768152580  0.1572117370122010
  0.3520106997673011  0.7688443843912918  0.1576668815172981
  0.3528154399817349  0.8805136855247565  0.1572779171008980
  0.2528838278901475  0.9362306143798865  0.1571889038230893
  0.4513114843599565  0.7103059244224786  0.1604875468451860
  0.5531865194997634  0.7654510075425962  0.1600486523264877
  0.5531215470282969  0.8778736263641505  0.1586434998701499
  0.4534144984980245  0.9357256892388821  0.1580231974908395
  0.6546086062496145  0.7100004576467845  0.1594184279029134
  0.7528961347516869  0.7687729767135141  0.1584242253696394
  0.7519197086468223  0.8803670149472340  0.1583762289045290
  0.6520273831498815  0.9358209441458284  0.1581499717787083
  0.8533448908321862  0.7144406251103153  0.1586490970426134
  0.9526769977747681  0.7700952471888217  0.1586530034428836
  0.8519057134513647  0.9361479957657203  0.1590055087329662
  0.1523566466361819  0.8814089530471633  0.1577500663538593
  0.9521334648203461  0.8813379511777452  0.1591023245010580
  0.4457137749252272  0.3831913049303173  0.1643638981003138
  0.4456988237944558  0.6005828939695543  0.1643319175153890
  0.6594967526279251  0.3815264129979756  0.1605841217136952
  0.6595323830089138  0.6022524413690361  0.1605298620240654
  0.5487089095949520  0.4919556629777270  0.2977234299178304
  0.5556135053492091  0.4919745537599394  0.2012293112081917
  0.6112306951985410  0.4919288646409299  0.3310108898066986
  0.4778833304496671  0.4919427399116228  0.3237381044886724
 
  0.00000000E+00  0.00000000E+00  0.00000000E+00
  0.00000000E+00  0.00000000E+00  0.00000000E+00
  0.00000000E+00  0.00000000E+00  0.00000000E+00
  0.00000000E+00  0.00000000E+00  0.00000000E+00
  0.00000000E+00  0.00000000E+00  0.00000000E+00
  0.00000000E+00  0.00000000E+00  0.00000000E+00
  0.00000000E+00  0.00000000E+00  0.00000000E+00
  0.00000000E+00  0.00000000E+00  0.00000000E+00
  0.00000000E+00  0.00000000E+00  0.00000000E+00
  0.00000000E+00  0.00000000E+00  0.00000000E+00
  0.00000000E+00  0.00000000E+00  0.00000000E+00
  0.00000000E+00  0.00000000E+00  0.00000000E+00
  0.00000000E+00  0.00000000E+00  0.00000000E+00
  0.00000000E+00  0.00000000E+00  0.00000000E+00
  0.00000000E+00  0.00000000E+00  0.00000000E+00
  0.00000000E+00  0.00000000E+00  0.00000000E+00
  0.00000000E+00  0.00000000E+00  0.00000000E+00
  0.00000000E+00  0.00000000E+00  0.00000000E+00
  0.00000000E+00  0.00000000E+00  0.00000000E+00
  0.00000000E+00  0.00000000E+00  0.00000000E+00
  0.00000000E+00  0.00000000E+00  0.00000000E+00
  0.00000000E+00  0.00000000E+00  0.00000000E+00
  0.00000000E+00  0.00000000E+00  0.00000000E+00
  0.00000000E+00  0.00000000E+00  0.00000000E+00
  0.00000000E+00  0.00000000E+00  0.00000000E+00
  0.00000000E+00  0.00000000E+00  0.00000000E+00
  0.00000000E+00  0.00000000E+00  0.00000000E+00
  0.00000000E+00  0.00000000E+00  0.00000000E+00
  0.00000000E+00  0.00000000E+00  0.00000000E+00
  0.00000000E+00  0.00000000E+00  0.00000000E+00
  0.00000000E+00  0.00000000E+00  0.00000000E+00
  0.00000000E+00  0.00000000E+00  0.00000000E+00
  0.00000000E+00  0.00000000E+00  0.00000000E+00
  0.00000000E+00  0.00000000E+00  0.00000000E+00
  0.00000000E+00  0.00000000E+00  0.00000000E+00
  0.00000000E+00  0.00000000E+00  0.00000000E+00
  0.00000000E+00  0.00000000E+00  0.00000000E+00
  0.00000000E+00  0.00000000E+00  0.00000000E+00
  0.00000000E+00  0.00000000E+00  0.00000000E+00
  0.00000000E+00  0.00000000E+00  0.00000000E+00
  0.00000000E+00  0.00000000E+00  0.00000000E+00
  0.00000000E+00  0.00000000E+00  0.00000000E+00
  0.00000000E+00  0.00000000E+00  0.00000000E+00
  0.00000000E+00  0.00000000E+00  0.00000000E+00
  0.00000000E+00  0.00000000E+00  0.00000000E+00
  0.00000000E+00  0.00000000E+00  0.00000000E+00
  0.00000000E+00  0.00000000E+00  0.00000000E+00
  0.00000000E+00  0.00000000E+00  0.00000000E+00
  0.00000000E+00  0.00000000E+00  0.00000000E+00
  0.00000000E+00  0.00000000E+00  0.00000000E+00
  0.00000000E+00  0.00000000E+00  0.00000000E+00
  0.00000000E+00  0.00000000E+00  0.00000000E+00
  0.00000000E+00  0.00000000E+00  0.00000000E+00
  0.00000000E+00  0.00000000E+00  0.00000000E+00
  0.00000000E+00  0.00000000E+00  0.00000000E+00
  0.00000000E+00  0.00000000E+00  0.00000000E+00
  0.00000000E+00  0.00000000E+00  0.00000000E+00
  0.00000000E+00  0.00000000E+00  0.00000000E+00
  0.00000000E+00  0.00000000E+00  0.00000000E+00
  0.00000000E+00  0.00000000E+00  0.00000000E+00
  0.00000000E+00  0.00000000E+00  0.00000000E+00
  0.00000000E+00  0.00000000E+00  0.00000000E+00
