Cr-pyrridine-N1_nh2                     
   1.00000000000000     
    12.5418977990999991    0.0000000000000000    0.0000000000000000
     0.0000000000000000   12.8452909764999994    0.0000000000000000
     0.0000000000000000    0.0000000000000000   19.8713392818999992
   C    N    Cr   H 
    57     2     1     2
Direct
  0.0527773802971771  0.0482250725852447  0.1571200940224686
  0.1527777035086554  0.1026745165343905  0.1575087795998735
  0.1520626217117683  0.2137901292596038  0.1572997920502872
  0.0523238140088684  0.2690758966956096  0.1561167668020166
  0.2534296105580279  0.0477715737178609  0.1579402154552582
  0.3532707956790861  0.1032862911653555  0.1588286782320013
  0.3524222886818116  0.2154943486274113  0.1598601295429587
  0.2515895640939244  0.2690009927894637  0.1585117598516013
  0.4533514669885241  0.0477705256437781  0.1589407908430953
  0.5527039362737397  0.1054973520761329  0.1588226382046215
  0.5523160348738509  0.2176574539376999  0.1605019343439981
  0.4517297629198882  0.2737428715601661  0.1630195999453308
  0.6523484519002221  0.0484611750490438  0.1572314911964329
  0.7521375364432488  0.1041501928417795  0.1567009583994537
  0.7523841656236914  0.2163175633877013  0.1561661263612249
  0.6527224227408470  0.2744660818020439  0.1577312414738189
  0.8522493098490890  0.0485861115379850  0.1567290467333318
  0.9524915960327659  0.1032863791995991  0.1567289343872151
  0.9527048808364702  0.2144580774684383  0.1559337248649495
  0.8528384468174565  0.2703667635351288  0.1552575781739691
  0.0522935649610848  0.3810697146692915  0.1551277624087107
  0.1508338107893998  0.4363790270693846  0.1557971260756093
  0.1509588354492111  0.5480396710768328  0.1553575735152591
  0.0527451801356025  0.6037892721780181  0.1546758524553954
  0.2495839393828058  0.3802175231152849  0.1583884496955466
  0.3472015897566799  0.4353558110633797  0.1628761707478218
  0.3470244396342574  0.5483266477495258  0.1617470450397573
  0.2497352241915869  0.6038601274247090  0.1570836052224987
  0.7559803837728281  0.4376832316804196  0.1541876161177123
  0.7576009100877930  0.5515177405665984  0.1540336336805578
  0.8547006237306938  0.3818825687312617  0.1543703946771267
  0.9538548425002285  0.4368888239804558  0.1542739230789719
  0.9543502904172282  0.5484187195901379  0.1541464216838252
  0.8560239562374146  0.6051083538109868  0.1541872175928766
  0.0533177093929461  0.7158793238373958  0.1553684239585579
  0.1529009075588232  0.7707691328446502  0.1562927131418513
  0.0530353020996025  0.9371639138122176  0.1568526688476850
  0.2524622878429618  0.7150455826829990  0.1570384631237718
  0.3532464090741294  0.7681810709522409  0.1584788509775691
  0.3537679362986438  0.8801934986449215  0.1582488365317651
  0.2536908468652921  0.9363195458263407  0.1576531717610301
  0.4529200987691089  0.7093668941594458  0.1609528345999744
  0.5542243687894570  0.7650262143001932  0.1590142710468768
  0.5538319335724002  0.8778854503236816  0.1580953700284224
  0.4538922527583045  0.9352735539653353  0.1586163204435778
  0.6559606523033297  0.7100844127884406  0.1567700223727786
  0.7541539440513813  0.7694744926514908  0.1554736002802099
  0.7528497121664462  0.8813916269451104  0.1560773002312042
  0.6526443101569643  0.9361334553198715  0.1568869274690990
  0.8547163396063147  0.7162557335548773  0.1548454307399518
  0.9540005621368682  0.7715160603884333  0.1553923081529875
  0.8525919648643737  0.9370575882128572  0.1564544954875537
  0.1531236600126944  0.8819324994633884  0.1569436912880462
  0.9531371882403044  0.8825395929520036  0.1562993139823807
  0.4466555110389143  0.3846802640986868  0.1686208709144993
  0.4461571263117959  0.5990576549948851  0.1660750897623898
  0.6569100938253245  0.3856543505491704  0.1570887148052044
  0.6615415802370010  0.6022265871806722  0.1560854155172427
  0.5382849789809484  0.4887266853593540  0.2861459031715130
  0.5559489890602459  0.4926693239300978  0.1951566741828192
  0.6041880558640748  0.4788848763701588  0.3159943978370313
  0.4705558664439873  0.4739631848591800  0.3130921929283594
 
  0.00000000E+00  0.00000000E+00  0.00000000E+00
  0.00000000E+00  0.00000000E+00  0.00000000E+00
  0.00000000E+00  0.00000000E+00  0.00000000E+00
  0.00000000E+00  0.00000000E+00  0.00000000E+00
  0.00000000E+00  0.00000000E+00  0.00000000E+00
  0.00000000E+00  0.00000000E+00  0.00000000E+00
  0.00000000E+00  0.00000000E+00  0.00000000E+00
  0.00000000E+00  0.00000000E+00  0.00000000E+00
  0.00000000E+00  0.00000000E+00  0.00000000E+00
  0.00000000E+00  0.00000000E+00  0.00000000E+00
  0.00000000E+00  0.00000000E+00  0.00000000E+00
  0.00000000E+00  0.00000000E+00  0.00000000E+00
  0.00000000E+00  0.00000000E+00  0.00000000E+00
  0.00000000E+00  0.00000000E+00  0.00000000E+00
  0.00000000E+00  0.00000000E+00  0.00000000E+00
  0.00000000E+00  0.00000000E+00  0.00000000E+00
  0.00000000E+00  0.00000000E+00  0.00000000E+00
  0.00000000E+00  0.00000000E+00  0.00000000E+00
  0.00000000E+00  0.00000000E+00  0.00000000E+00
  0.00000000E+00  0.00000000E+00  0.00000000E+00
  0.00000000E+00  0.00000000E+00  0.00000000E+00
  0.00000000E+00  0.00000000E+00  0.00000000E+00
  0.00000000E+00  0.00000000E+00  0.00000000E+00
  0.00000000E+00  0.00000000E+00  0.00000000E+00
  0.00000000E+00  0.00000000E+00  0.00000000E+00
  0.00000000E+00  0.00000000E+00  0.00000000E+00
  0.00000000E+00  0.00000000E+00  0.00000000E+00
  0.00000000E+00  0.00000000E+00  0.00000000E+00
  0.00000000E+00  0.00000000E+00  0.00000000E+00
  0.00000000E+00  0.00000000E+00  0.00000000E+00
  0.00000000E+00  0.00000000E+00  0.00000000E+00
  0.00000000E+00  0.00000000E+00  0.00000000E+00
  0.00000000E+00  0.00000000E+00  0.00000000E+00
  0.00000000E+00  0.00000000E+00  0.00000000E+00
  0.00000000E+00  0.00000000E+00  0.00000000E+00
  0.00000000E+00  0.00000000E+00  0.00000000E+00
  0.00000000E+00  0.00000000E+00  0.00000000E+00
  0.00000000E+00  0.00000000E+00  0.00000000E+00
  0.00000000E+00  0.00000000E+00  0.00000000E+00
  0.00000000E+00  0.00000000E+00  0.00000000E+00
  0.00000000E+00  0.00000000E+00  0.00000000E+00
  0.00000000E+00  0.00000000E+00  0.00000000E+00
  0.00000000E+00  0.00000000E+00  0.00000000E+00
  0.00000000E+00  0.00000000E+00  0.00000000E+00
  0.00000000E+00  0.00000000E+00  0.00000000E+00
  0.00000000E+00  0.00000000E+00  0.00000000E+00
  0.00000000E+00  0.00000000E+00  0.00000000E+00
  0.00000000E+00  0.00000000E+00  0.00000000E+00
  0.00000000E+00  0.00000000E+00  0.00000000E+00
  0.00000000E+00  0.00000000E+00  0.00000000E+00
  0.00000000E+00  0.00000000E+00  0.00000000E+00
  0.00000000E+00  0.00000000E+00  0.00000000E+00
  0.00000000E+00  0.00000000E+00  0.00000000E+00
  0.00000000E+00  0.00000000E+00  0.00000000E+00
  0.00000000E+00  0.00000000E+00  0.00000000E+00
  0.00000000E+00  0.00000000E+00  0.00000000E+00
  0.00000000E+00  0.00000000E+00  0.00000000E+00
  0.00000000E+00  0.00000000E+00  0.00000000E+00
  0.00000000E+00  0.00000000E+00  0.00000000E+00
  0.00000000E+00  0.00000000E+00  0.00000000E+00
  0.00000000E+00  0.00000000E+00  0.00000000E+00
  0.00000000E+00  0.00000000E+00  0.00000000E+00
