V-COF-366_nh2                           
   1.00000000000000     
    26.4123171264000014    0.0000000000000000    0.0000000000000000
     0.0000000000000000   26.4188421099999999    0.0000000000000000
     0.0000000000000000    0.0000000000000000   25.0000000000000000
   C    N    H    V 
    60     9    34     1
Direct
  0.2518403923827404  0.1965096393723677  0.2021030770200920
  0.2039275961040363  0.1720070886354157  0.1920856796197114
  0.1674032131679271  0.2085757314700402  0.1922416661202982
  0.1920659466262321  0.2563853243469322  0.2022902866160786
  0.3460045757314634  0.1970962335363228  0.2058116813181521
  0.3938448868634030  0.1723824942120546  0.2132239653469735
  0.4059314904177227  0.2569574127824200  0.2061257245385180
  0.4305794581051517  0.2090739903068866  0.2134448486182036
  0.2526862784665966  0.4103129135322435  0.2061113403551424
  0.1927854392698698  0.3505014720593795  0.2062089351641218
  0.2048456339396068  0.4350510962930977  0.2134628822993503
  0.1681001893438052  0.3983692766144595  0.2135297244326531
  0.4066282806911208  0.3511066722859464  0.2023620968113945
  0.4312010248136002  0.3989465476007232  0.1922008579305257
  0.3468017122860743  0.4109224871201233  0.2022037784451378
  0.3946531466937467  0.4354840953630561  0.1921035404386658
  0.2997660511266959  0.4361746393263182  0.2034581844311457
  0.1668632787010089  0.3034504629335381  0.2036176509187815
  0.2988906216310495  0.1712145617639420  0.2033013694619089
  0.2996156091789303  0.1142227591822487  0.1998204691222985
  0.3277016311644859  0.0890868790035319  0.1597425202535699
  0.2722381681461037  0.0827064120424519  0.2351298894848724
  0.3280247818387713  0.0365174983262824  0.1549205240262830
  0.2727286805745352  0.0297877194621849  0.2312101328446665
  0.3008709599748021  0.0054209242640352  0.1907619499731681
  0.4318872077106898  0.3040389190662450  0.2037773845685246
  0.2989400576296380  0.4931634171938543  0.1996000760262204
  0.4888661204222127  0.3032426955363884  0.2004728988754635
  0.1098758368238199  0.3043156392433473  0.1997352778206967
  0.2712795805856677  0.5178511178737965  0.1589083684891643
  0.5139822382557840  0.2750685259565875  0.1604547472105353
  0.0852603497354121  0.3318892260872691  0.1589318740166571
  0.3257063800008600  0.5250202849255755  0.2350622785799964
  0.5203922016796707  0.3305732556193600  0.2358049006603960
  0.0779537155517391  0.2775928258544536  0.2351731408089424
  0.2707616465930701  0.5704008676930916  0.1536977863620589
  0.5665567444485821  0.2746789639059906  0.1556575491685229
  0.0327150415476554  0.3323194336069900  0.1535327052572783
  0.3249275380462524  0.5779130251894514  0.2307452125246912
  0.5733210263868221  0.3300268789289182  0.2319169263258998
  0.0250620412402256  0.2782819846872673  0.2306863501707332
  0.2971858125190923  0.6018557874165366  0.1897387745758615
  0.5976699883041326  0.3018582997101490  0.1914701328056951
  0.0012189639826798  0.3059194306610655  0.1895439732166234
  0.6926691462663346  0.3032221335434433  0.1995172798443596
  0.9065734011317814  0.3045197930921835  0.1983601987544492
  0.2985100915851364  0.6965567203307357  0.1984976764496942
  0.2995982359026036  0.9104828451778635  0.1990762345848564
  0.7440913894865618  0.3038285522500083  0.2041623182264677
  0.7739159021606965  0.2573466765843494  0.2056290363176588
  0.7737326553049924  0.3503027209016447  0.2071934704589466
  0.8255934814136379  0.2573400435493128  0.2057817992210328
  0.8254157832977624  0.3503034038685899  0.2067842356132507
  0.8552319532289903  0.3038703308491565  0.2037837925252430
  0.2991100315299307  0.7479167446558618  0.2037175993551789
  0.3456188102785004  0.7776197909853302  0.2056513434392910
  0.2526459778328273  0.7777062690467147  0.2066682370138725
  0.3455565351684226  0.8292905785921227  0.2054093861292560
  0.2525943433141072  0.8293781880018936  0.2069949888545932
  0.2990472369290115  0.8590716896714162  0.2038690456221876
  0.2441162673223972  0.2485500010966225  0.2081042327009874
  0.2450182565047594  0.3580910307068242  0.2025019184297724
  0.3536996313249663  0.2493300889519999  0.2022266211925844
  0.3545797890668422  0.3588870574705507  0.2082101479958260
  0.6497880514996144  0.3025430867076722  0.1809185545012874
  0.9490378301222517  0.3056783315765968  0.1785768211609741
  0.2974044740687516  0.6540330192924352  0.1788819461449451
  0.3002095815183869  0.9532817458350579  0.1802798405458046
  0.2994681944080728  0.3035178885560684  0.2939339459192963
  0.1990722686185415  0.1319069465059499  0.1841228936541343
  0.1272305644994239  0.2038074424403780  0.1845330538145170
  0.3989512283861772  0.1319546451436666  0.2188649012805223
  0.4709732254975991  0.2038928040828803  0.2192865618653915
  0.1997852592720927  0.4754851301945906  0.2191120850707825
  0.1276669364609113  0.4034844028596783  0.2192002551811719
  0.4713335487923607  0.4037175706398023  0.1843018996828109
  0.3994447255159635  0.4756143362562310  0.1841850593979781
  0.3488288333229903  0.1115063195587680  0.1306439476790812
  0.2502066159524191  0.1001353709509097  0.2671752789491795
  0.3489095541416351  0.0186024836765038  0.1223530886587681
  0.2510245150216427  0.0071232503032941  0.2596220979188991
  0.2506219255016744  0.4951230800586683  0.1296972946776696
  0.4915215752541480  0.2539695386739796  0.1313796681383062
  0.1080629376180485  0.3525451048453597  0.1297921569286520
  0.3475213441082191  0.5079104612422793  0.2674669867159954
  0.5029832616849311  0.3526387154856184  0.2678400805342242
  0.0950012120850986  0.2559080283161332  0.2677156519534498
  0.2502438666133672  0.5880372697024315  0.1207014256991033
  0.5844562326887121  0.2537730929146026  0.1231038266940164
  0.0151389753893212  0.3527185236737511  0.1204260372486940
  0.3461588042052707  0.6009152554123094  0.2592393709456159
  0.5959713075356945  0.3517328079760635  0.2603435922475695
  0.0019875426431256  0.2570841333907066  0.2591478736013019
  0.7539851853979891  0.2211600156326849  0.2057526918697226
  0.7538335721616858  0.3864934165581787  0.2083362457353357
  0.8454936646647434  0.2211395943561550  0.2060577203097070
  0.8453770626518379  0.3864610116582408  0.2076517730723082
  0.3818603848081666  0.7577819688543985  0.2059555019810418
  0.2164868379109988  0.7577314281477537  0.2075692743831776
  0.3817271658962587  0.8492614061171410  0.2056036883309493
  0.2163786881814646  0.8492393217954189  0.2081861266113643
  0.3225809521292458  0.3257131451428035  0.3167946230681145
  0.2764169385647050  0.2812762085389446  0.3168124279447040
  0.2993670496021403  0.3036808026143374  0.2202886109742333
 
  0.00000000E+00  0.00000000E+00  0.00000000E+00
  0.00000000E+00  0.00000000E+00  0.00000000E+00
  0.00000000E+00  0.00000000E+00  0.00000000E+00
  0.00000000E+00  0.00000000E+00  0.00000000E+00
  0.00000000E+00  0.00000000E+00  0.00000000E+00
  0.00000000E+00  0.00000000E+00  0.00000000E+00
  0.00000000E+00  0.00000000E+00  0.00000000E+00
  0.00000000E+00  0.00000000E+00  0.00000000E+00
  0.00000000E+00  0.00000000E+00  0.00000000E+00
  0.00000000E+00  0.00000000E+00  0.00000000E+00
  0.00000000E+00  0.00000000E+00  0.00000000E+00
  0.00000000E+00  0.00000000E+00  0.00000000E+00
  0.00000000E+00  0.00000000E+00  0.00000000E+00
  0.00000000E+00  0.00000000E+00  0.00000000E+00
  0.00000000E+00  0.00000000E+00  0.00000000E+00
  0.00000000E+00  0.00000000E+00  0.00000000E+00
  0.00000000E+00  0.00000000E+00  0.00000000E+00
  0.00000000E+00  0.00000000E+00  0.00000000E+00
  0.00000000E+00  0.00000000E+00  0.00000000E+00
  0.00000000E+00  0.00000000E+00  0.00000000E+00
  0.00000000E+00  0.00000000E+00  0.00000000E+00
  0.00000000E+00  0.00000000E+00  0.00000000E+00
  0.00000000E+00  0.00000000E+00  0.00000000E+00
  0.00000000E+00  0.00000000E+00  0.00000000E+00
  0.00000000E+00  0.00000000E+00  0.00000000E+00
  0.00000000E+00  0.00000000E+00  0.00000000E+00
  0.00000000E+00  0.00000000E+00  0.00000000E+00
  0.00000000E+00  0.00000000E+00  0.00000000E+00
  0.00000000E+00  0.00000000E+00  0.00000000E+00
  0.00000000E+00  0.00000000E+00  0.00000000E+00
  0.00000000E+00  0.00000000E+00  0.00000000E+00
  0.00000000E+00  0.00000000E+00  0.00000000E+00
  0.00000000E+00  0.00000000E+00  0.00000000E+00
  0.00000000E+00  0.00000000E+00  0.00000000E+00
  0.00000000E+00  0.00000000E+00  0.00000000E+00
  0.00000000E+00  0.00000000E+00  0.00000000E+00
  0.00000000E+00  0.00000000E+00  0.00000000E+00
  0.00000000E+00  0.00000000E+00  0.00000000E+00
  0.00000000E+00  0.00000000E+00  0.00000000E+00
  0.00000000E+00  0.00000000E+00  0.00000000E+00
  0.00000000E+00  0.00000000E+00  0.00000000E+00
  0.00000000E+00  0.00000000E+00  0.00000000E+00
  0.00000000E+00  0.00000000E+00  0.00000000E+00
  0.00000000E+00  0.00000000E+00  0.00000000E+00
  0.00000000E+00  0.00000000E+00  0.00000000E+00
  0.00000000E+00  0.00000000E+00  0.00000000E+00
  0.00000000E+00  0.00000000E+00  0.00000000E+00
  0.00000000E+00  0.00000000E+00  0.00000000E+00
  0.00000000E+00  0.00000000E+00  0.00000000E+00
  0.00000000E+00  0.00000000E+00  0.00000000E+00
  0.00000000E+00  0.00000000E+00  0.00000000E+00
  0.00000000E+00  0.00000000E+00  0.00000000E+00
  0.00000000E+00  0.00000000E+00  0.00000000E+00
  0.00000000E+00  0.00000000E+00  0.00000000E+00
  0.00000000E+00  0.00000000E+00  0.00000000E+00
  0.00000000E+00  0.00000000E+00  0.00000000E+00
  0.00000000E+00  0.00000000E+00  0.00000000E+00
  0.00000000E+00  0.00000000E+00  0.00000000E+00
  0.00000000E+00  0.00000000E+00  0.00000000E+00
  0.00000000E+00  0.00000000E+00  0.00000000E+00
  0.00000000E+00  0.00000000E+00  0.00000000E+00
  0.00000000E+00  0.00000000E+00  0.00000000E+00
  0.00000000E+00  0.00000000E+00  0.00000000E+00
  0.00000000E+00  0.00000000E+00  0.00000000E+00
  0.00000000E+00  0.00000000E+00  0.00000000E+00
  0.00000000E+00  0.00000000E+00  0.00000000E+00
  0.00000000E+00  0.00000000E+00  0.00000000E+00
  0.00000000E+00  0.00000000E+00  0.00000000E+00
  0.00000000E+00  0.00000000E+00  0.00000000E+00
  0.00000000E+00  0.00000000E+00  0.00000000E+00
  0.00000000E+00  0.00000000E+00  0.00000000E+00
  0.00000000E+00  0.00000000E+00  0.00000000E+00
  0.00000000E+00  0.00000000E+00  0.00000000E+00
  0.00000000E+00  0.00000000E+00  0.00000000E+00
  0.00000000E+00  0.00000000E+00  0.00000000E+00
  0.00000000E+00  0.00000000E+00  0.00000000E+00
  0.00000000E+00  0.00000000E+00  0.00000000E+00
  0.00000000E+00  0.00000000E+00  0.00000000E+00
  0.00000000E+00  0.00000000E+00  0.00000000E+00
  0.00000000E+00  0.00000000E+00  0.00000000E+00
  0.00000000E+00  0.00000000E+00  0.00000000E+00
  0.00000000E+00  0.00000000E+00  0.00000000E+00
  0.00000000E+00  0.00000000E+00  0.00000000E+00
  0.00000000E+00  0.00000000E+00  0.00000000E+00
  0.00000000E+00  0.00000000E+00  0.00000000E+00
  0.00000000E+00  0.00000000E+00  0.00000000E+00
  0.00000000E+00  0.00000000E+00  0.00000000E+00
  0.00000000E+00  0.00000000E+00  0.00000000E+00
  0.00000000E+00  0.00000000E+00  0.00000000E+00
  0.00000000E+00  0.00000000E+00  0.00000000E+00
  0.00000000E+00  0.00000000E+00  0.00000000E+00
  0.00000000E+00  0.00000000E+00  0.00000000E+00
  0.00000000E+00  0.00000000E+00  0.00000000E+00
  0.00000000E+00  0.00000000E+00  0.00000000E+00
  0.00000000E+00  0.00000000E+00  0.00000000E+00
  0.00000000E+00  0.00000000E+00  0.00000000E+00
  0.00000000E+00  0.00000000E+00  0.00000000E+00
  0.00000000E+00  0.00000000E+00  0.00000000E+00
  0.00000000E+00  0.00000000E+00  0.00000000E+00
  0.00000000E+00  0.00000000E+00  0.00000000E+00
  0.00000000E+00  0.00000000E+00  0.00000000E+00
  0.00000000E+00  0.00000000E+00  0.00000000E+00
  0.00000000E+00  0.00000000E+00  0.00000000E+00
  0.00000000E+00  0.00000000E+00  0.00000000E+00
