Fe-N1-pyrrole_nh2                       
   1.00000000000000     
     8.4748927550000008    0.0000000000000000    0.0000000000000000
     0.0000000000000000    8.4749497369999993    0.0000000000000000
     0.0000000000000000    0.0000000000000000   19.8713392818999992
   C    N    Fe   H 
    23     2     1     2
Direct
  0.5011379993180516  0.0820514602563647  0.1550296735610206
  0.3558714101279649  0.1655465238511722  0.1556815323753870
  0.6442691278490608  0.1668066629709097  0.1534401953517706
  0.7980955755896574  0.9209951554381717  0.1535803792997720
  0.7948440462284723  0.0858492222152781  0.1521751087419570
  0.9168108778355841  0.2083047124700322  0.1503695537590141
  0.8297192608658085  0.3604424732242498  0.1502246688740775
  0.2070852110629392  0.0819838438626229  0.1530978374018314
  0.0807258053346400  0.2075327461708427  0.1518965238585448
  0.1648839816117614  0.3567263673782781  0.1530637798503890
  0.0813691175020724  0.5016122414411690  0.1508361332494269
  0.1662006918769078  0.6448466391273927  0.1498298956466877
  0.3592805309827942  0.8308834233409120  0.1514460681445652
  0.2082981798734978  0.9179309026878952  0.1509097183876044
  0.0844493471401415  0.7962224599984157  0.1503102893470394
  0.6512296517247032  0.8349476444694024  0.1561731039215894
  0.8343986099857625  0.6511370850165926  0.1536344683424341
  0.9206271593605931  0.7996554198595521  0.1520493247489469
  0.5034263812930353  0.9136107621070123  0.1545988939917698
  0.9135801424711223  0.5038467607819344  0.1511633336696698
  0.6631377683881262  0.3370272063881167  0.1535877869953297
  0.3344857028650752  0.3369060211566273  0.1581617429251611
  0.3341752244332038  0.6628252223539496  0.1519101688333641
  0.6743715903864660  0.6720628291191377  0.1586210672319696
  0.4894114122199104  0.4917264204273294  0.2607625195593855
  0.4967566820454858  0.4941395661460569  0.1733174185598865
  0.5848028229420675  0.5299200576132073  0.2877068804699329
  0.4029528735483420  0.4396847538882257  0.2885771253623630
 
  0.00000000E+00  0.00000000E+00  0.00000000E+00
  0.00000000E+00  0.00000000E+00  0.00000000E+00
  0.00000000E+00  0.00000000E+00  0.00000000E+00
  0.00000000E+00  0.00000000E+00  0.00000000E+00
  0.00000000E+00  0.00000000E+00  0.00000000E+00
  0.00000000E+00  0.00000000E+00  0.00000000E+00
  0.00000000E+00  0.00000000E+00  0.00000000E+00
  0.00000000E+00  0.00000000E+00  0.00000000E+00
  0.00000000E+00  0.00000000E+00  0.00000000E+00
  0.00000000E+00  0.00000000E+00  0.00000000E+00
  0.00000000E+00  0.00000000E+00  0.00000000E+00
  0.00000000E+00  0.00000000E+00  0.00000000E+00
  0.00000000E+00  0.00000000E+00  0.00000000E+00
  0.00000000E+00  0.00000000E+00  0.00000000E+00
  0.00000000E+00  0.00000000E+00  0.00000000E+00
  0.00000000E+00  0.00000000E+00  0.00000000E+00
  0.00000000E+00  0.00000000E+00  0.00000000E+00
  0.00000000E+00  0.00000000E+00  0.00000000E+00
  0.00000000E+00  0.00000000E+00  0.00000000E+00
  0.00000000E+00  0.00000000E+00  0.00000000E+00
  0.00000000E+00  0.00000000E+00  0.00000000E+00
  0.00000000E+00  0.00000000E+00  0.00000000E+00
  0.00000000E+00  0.00000000E+00  0.00000000E+00
  0.00000000E+00  0.00000000E+00  0.00000000E+00
  0.00000000E+00  0.00000000E+00  0.00000000E+00
  0.00000000E+00  0.00000000E+00  0.00000000E+00
  0.00000000E+00  0.00000000E+00  0.00000000E+00
  0.00000000E+00  0.00000000E+00  0.00000000E+00
