Ni-pyrrole-N4_nh2                       
   1.00000000000000     
     8.3593689595999994    0.0000344959000000    0.0000143034000000
     0.0000344643000000    8.3604874928000008   -0.0000047257000000
     0.0000378666000000   -0.0000052320000000   17.2026302551999990
   C    N    Ni   H 
    20     5     1     2
Direct
  0.4999980226196292  0.0865920806889837  0.1543964027295460
  0.3540850815636296  0.1695603535297386  0.1537023495692645
  0.6460397673830229  0.1695115894225627  0.1537019130657327
  0.7961302425288890  0.9148508472388758  0.1549647047997320
  0.7960545073777314  0.0851073494722204  0.1549653587242215
  0.9148933890453828  0.2038257794965727  0.1549738195909721
  0.8305865146872964  0.3538946150864872  0.1535445862855655
  0.2038972724173364  0.0850896626528868  0.1549662468942313
  0.0851158646473753  0.2037526535462002  0.1549718743784713
  0.1694900456899800  0.3539908263799629  0.1535409206183741
  0.0865905569320839  0.4999576112948801  0.1541440984312415
  0.1694444656231298  0.6460503914464457  0.1535497310634104
  0.3539870976668140  0.8304298581433501  0.1537111840034538
  0.2039738700861739  0.9148337006428924  0.1549675241922189
  0.0851321803080277  0.7961159259325891  0.1549720375904494
  0.6459406569383539  0.8303838106759774  0.1537072333687916
  0.8305381442106770  0.6459531412384379  0.1535441361801583
  0.9149103907340655  0.7961891812462759  0.1549687015460595
  0.5000296581763288  0.9133538895075738  0.1544000981374412
  0.9134362616142516  0.4999885764982629  0.1541434108948413
  0.6680336106815803  0.3320718644968818  0.1494639457472625
  0.3320261026323459  0.3321041262512486  0.1494744400968470
  0.3320059163900850  0.6678669380444709  0.1494816937662105
  0.6679933249698599  0.6678373132827112  0.1494884764571277
  0.5000136229507448  0.4997909886886576  0.2746136361271923
  0.5000187219567719  0.4999748077568046  0.1637695762046694
  0.6013713296313491  0.5000754188137539  0.3076483606267973
  0.3986525809550548  0.5000783431220222  0.3076461680549098
 
  0.00000000E+00  0.00000000E+00  0.00000000E+00
  0.00000000E+00  0.00000000E+00  0.00000000E+00
  0.00000000E+00  0.00000000E+00  0.00000000E+00
  0.00000000E+00  0.00000000E+00  0.00000000E+00
  0.00000000E+00  0.00000000E+00  0.00000000E+00
  0.00000000E+00  0.00000000E+00  0.00000000E+00
  0.00000000E+00  0.00000000E+00  0.00000000E+00
  0.00000000E+00  0.00000000E+00  0.00000000E+00
  0.00000000E+00  0.00000000E+00  0.00000000E+00
  0.00000000E+00  0.00000000E+00  0.00000000E+00
  0.00000000E+00  0.00000000E+00  0.00000000E+00
  0.00000000E+00  0.00000000E+00  0.00000000E+00
  0.00000000E+00  0.00000000E+00  0.00000000E+00
  0.00000000E+00  0.00000000E+00  0.00000000E+00
  0.00000000E+00  0.00000000E+00  0.00000000E+00
  0.00000000E+00  0.00000000E+00  0.00000000E+00
  0.00000000E+00  0.00000000E+00  0.00000000E+00
  0.00000000E+00  0.00000000E+00  0.00000000E+00
  0.00000000E+00  0.00000000E+00  0.00000000E+00
  0.00000000E+00  0.00000000E+00  0.00000000E+00
  0.00000000E+00  0.00000000E+00  0.00000000E+00
  0.00000000E+00  0.00000000E+00  0.00000000E+00
  0.00000000E+00  0.00000000E+00  0.00000000E+00
  0.00000000E+00  0.00000000E+00  0.00000000E+00
  0.00000000E+00  0.00000000E+00  0.00000000E+00
  0.00000000E+00  0.00000000E+00  0.00000000E+00
  0.00000000E+00  0.00000000E+00  0.00000000E+00
  0.00000000E+00  0.00000000E+00  0.00000000E+00
