V-pyrrole-N4_nh2                        
   1.00000000000000     
     8.4367986165000008   -0.0000202695000000   -0.0000035673000000
    -0.0000199589000000    8.4372057779999992    0.0000018007000000
    -0.0000194559000000    0.0000023843000000   17.8404113092000003
   C    N    V    H 
    20     5     1     2
Direct
  0.5000122991997979  0.0857934063726908  0.1532572370983596
  0.3517177553831463  0.1660299260065131  0.1527589964369186
  0.6483062395001973  0.1660306788739504  0.1527629399873671
  0.7941790191163287  0.9164151535856486  0.1514602327495100
  0.7947803485438802  0.0833268154943751  0.1519450400041979
  0.9173069040161793  0.2026618125593666  0.1510024566214533
  0.8329299441167234  0.3525845453945888  0.1512441101832583
  0.2052452297436380  0.0833246558907271  0.1519388118569529
  0.0827167386167875  0.2026615186687334  0.1510001437569279
  0.1670978572236149  0.3525815151323232  0.1512404828292077
  0.0852984725409894  0.4992686064859020  0.1515398095831824
  0.1665953305338601  0.6458066010730678  0.1512525100406427
  0.3514769173969103  0.8348953558997061  0.1530718077767716
  0.2058485791992458  0.9164123181918669  0.1514551403323737
  0.0823951920889912  0.7954035232279223  0.1498644781265619
  0.6485506871801595  0.8348973663570219  0.1530749778015256
  0.8334314015920915  0.6458064607746193  0.1512520343368636
  0.9176308526870932  0.7954043242085076  0.1498654190922351
  0.5000131464541669  0.9146234228014664  0.1534999264515036
  0.9147267418596245  0.4992682545222620  0.1515406195872526
  0.6720752262913737  0.3310822539570162  0.1523037751065731
  0.3279494757783634  0.3310831580288439  0.1523017048670537
  0.3277774686386014  0.6682226982675319  0.1549336815267733
  0.6722479754310865  0.6682253537372113  0.1549340030349447
  0.5000211295921873  0.5019017025688747  0.2780242423882572
  0.5000135375982668  0.5064934518508692  0.1758026823660345
  0.6004952365788402  0.4995157630337168  0.3099615206815288
  0.3995528192619252  0.4995097156665395  0.3099652938864185
 
  0.00000000E+00  0.00000000E+00  0.00000000E+00
  0.00000000E+00  0.00000000E+00  0.00000000E+00
  0.00000000E+00  0.00000000E+00  0.00000000E+00
  0.00000000E+00  0.00000000E+00  0.00000000E+00
  0.00000000E+00  0.00000000E+00  0.00000000E+00
  0.00000000E+00  0.00000000E+00  0.00000000E+00
  0.00000000E+00  0.00000000E+00  0.00000000E+00
  0.00000000E+00  0.00000000E+00  0.00000000E+00
  0.00000000E+00  0.00000000E+00  0.00000000E+00
  0.00000000E+00  0.00000000E+00  0.00000000E+00
  0.00000000E+00  0.00000000E+00  0.00000000E+00
  0.00000000E+00  0.00000000E+00  0.00000000E+00
  0.00000000E+00  0.00000000E+00  0.00000000E+00
  0.00000000E+00  0.00000000E+00  0.00000000E+00
  0.00000000E+00  0.00000000E+00  0.00000000E+00
  0.00000000E+00  0.00000000E+00  0.00000000E+00
  0.00000000E+00  0.00000000E+00  0.00000000E+00
  0.00000000E+00  0.00000000E+00  0.00000000E+00
  0.00000000E+00  0.00000000E+00  0.00000000E+00
  0.00000000E+00  0.00000000E+00  0.00000000E+00
  0.00000000E+00  0.00000000E+00  0.00000000E+00
  0.00000000E+00  0.00000000E+00  0.00000000E+00
  0.00000000E+00  0.00000000E+00  0.00000000E+00
  0.00000000E+00  0.00000000E+00  0.00000000E+00
  0.00000000E+00  0.00000000E+00  0.00000000E+00
  0.00000000E+00  0.00000000E+00  0.00000000E+00
  0.00000000E+00  0.00000000E+00  0.00000000E+00
  0.00000000E+00  0.00000000E+00  0.00000000E+00
