V-N2-pyrrole_nh2                        
   1.00000000000000     
     8.5087045812000000    0.0000000000000000    0.0000000000000000
     0.0000000000000000    8.5014278529999991    0.0000000000000000
     0.0000000000000000    0.0000000000000000   19.8713392818999992
   C    N    V    H 
    22     3     1     2
Direct
  0.4967247252659162  0.0843422075522930  0.1510406661414078
  0.3501369340400893  0.1647058852483637  0.1515053351550762
  0.6430778191388310  0.1671457836316249  0.1508743062456942
  0.7934406015366413  0.9186467681673749  0.1501980886709970
  0.7934469083467083  0.0812896259814238  0.1501962889800663
  0.9183382031056632  0.2056129573374222  0.1503914359283765
  0.8372763381272512  0.3546276098480515  0.1513597656154106
  0.2025953524903060  0.0825130148355096  0.1505779758529729
  0.0820937910508891  0.2032272192968020  0.1500387198611182
  0.1682528062926190  0.3521804763560136  0.1509504642151113
  0.0893577630984873  0.4999723593347155  0.1511485459694779
  0.1682485980529487  0.6477686285462400  0.1509484631361671
  0.3501274413732877  0.8352416955533369  0.1515038126988214
  0.2025900739357984  0.9174342828116336  0.1505806124565625
  0.0820867019821883  0.7967198312749134  0.1500436476519167
  0.6430702639838444  0.8327940805504935  0.1508758423378846
  0.8372719984545798  0.6453117747086071  0.1513587165775426
  0.9183285146151676  0.7943248727354784  0.1503930533078497
  0.4967203367768835  0.9156011427947633  0.1510408162318248
  0.9208633730697346  0.4999713727417667  0.1512293998509464
  0.6673511826074949  0.3334289624714852  0.1547145988044562
  0.6673457198106940  0.6665110963305358  0.1547136948047472
  0.3278708995501969  0.3277309025280509  0.1532221457746456
  0.3278661423687475  0.6722154470716534  0.1532146798875711
  0.5062467710833383  0.4999682476014679  0.2714429642452145
  0.4972520928260334  0.4999700041169801  0.1794872742196249
  0.6047359244428604  0.4999963470213404  0.3006433215103859
  0.4058791596466209  0.4999574672943540  0.2998058070351072
 
  0.00000000E+00  0.00000000E+00  0.00000000E+00
  0.00000000E+00  0.00000000E+00  0.00000000E+00
  0.00000000E+00  0.00000000E+00  0.00000000E+00
  0.00000000E+00  0.00000000E+00  0.00000000E+00
  0.00000000E+00  0.00000000E+00  0.00000000E+00
  0.00000000E+00  0.00000000E+00  0.00000000E+00
  0.00000000E+00  0.00000000E+00  0.00000000E+00
  0.00000000E+00  0.00000000E+00  0.00000000E+00
  0.00000000E+00  0.00000000E+00  0.00000000E+00
  0.00000000E+00  0.00000000E+00  0.00000000E+00
  0.00000000E+00  0.00000000E+00  0.00000000E+00
  0.00000000E+00  0.00000000E+00  0.00000000E+00
  0.00000000E+00  0.00000000E+00  0.00000000E+00
  0.00000000E+00  0.00000000E+00  0.00000000E+00
  0.00000000E+00  0.00000000E+00  0.00000000E+00
  0.00000000E+00  0.00000000E+00  0.00000000E+00
  0.00000000E+00  0.00000000E+00  0.00000000E+00
  0.00000000E+00  0.00000000E+00  0.00000000E+00
  0.00000000E+00  0.00000000E+00  0.00000000E+00
  0.00000000E+00  0.00000000E+00  0.00000000E+00
  0.00000000E+00  0.00000000E+00  0.00000000E+00
  0.00000000E+00  0.00000000E+00  0.00000000E+00
  0.00000000E+00  0.00000000E+00  0.00000000E+00
  0.00000000E+00  0.00000000E+00  0.00000000E+00
  0.00000000E+00  0.00000000E+00  0.00000000E+00
  0.00000000E+00  0.00000000E+00  0.00000000E+00
  0.00000000E+00  0.00000000E+00  0.00000000E+00
  0.00000000E+00  0.00000000E+00  0.00000000E+00
