Ti-COF-366_nh2                          
   1.00000000000000     
    26.4341030530999994    0.0000000000000000    0.0000000000000000
     0.0000000000000000   26.4552104292999992    0.0000000000000000
     0.0000000000000000    0.0000000000000000   25.0000000000000000
   C    N    H    Ti
    60     9    34     1
Direct
  0.2518367047160530  0.1962754357714307  0.2019807725513628
  0.2038342969826826  0.1720672001358779  0.1921213281422005
  0.1673087046554018  0.2085432716210636  0.1921161427727754
  0.1916269790441897  0.2564498045332832  0.2020386964980948
  0.3462462978440631  0.1966312953649952  0.2055717587891072
  0.3939553256467683  0.1721776361189129  0.2127996290381309
  0.4062484546060262  0.2567169288572263  0.2063354368105134
  0.4307085973735439  0.2090247850021185  0.2134579000250230
  0.2523877617445904  0.4106575014392370  0.2062625564992265
  0.1924122420095636  0.3506389863950632  0.2064735572498209
  0.2047533008330147  0.4350875364939563  0.2141575414556866
  0.1679739106621639  0.3983009686219841  0.2142702468156873
  0.4066048853722907  0.3510671105695446  0.2021853473341904
  0.4309079791122856  0.3988816026299400  0.1916383184501803
  0.3465175567159257  0.4113087924990073  0.2013669370982595
  0.3944243361751448  0.4354072200362881  0.1910075448798410
  0.2996450324775602  0.4364590818814305  0.2029242314294477
  0.1665844677563507  0.3033599391085752  0.2034361192892053
  0.2987606685545717  0.1710320844715770  0.2029803792980189
  0.2993850764717423  0.1141341890038936  0.1994606347247388
  0.3273597937070792  0.0888407830631696  0.1594149576125140
  0.2722593213120508  0.0827830199308198  0.2350879810763445
  0.3276984560065281  0.0363244602016099  0.1548748324599158
  0.2727585004537530  0.0299323836158655  0.2314693645043080
  0.3007018448644465  0.0053934882906304  0.1910181040573827
  0.4318355209880496  0.3041842988554599  0.2038844364924008
  0.2987717220650754  0.4933552243612744  0.1990184042389465
  0.4887359554488580  0.3036179425626006  0.2010285474706433
  0.1096694116954066  0.3043289504001331  0.1991731004052157
  0.2711768967856756  0.5180634479970070  0.1583232916989550
  0.5144441827755114  0.2746611820699518  0.1620829838003659
  0.0854547186576067  0.3317906432131478  0.1580902530431282
  0.3252923463909683  0.5251975363961174  0.2346660122600500
  0.5197668976710184  0.3318025664045819  0.2360852922380196
  0.0774314697934400  0.2778443072665649  0.2344527221394851
  0.2707363186729785  0.5705402597032508  0.1531000177197731
  0.5669879276819950  0.2743767460596992  0.1579689208384595
  0.0330304057453395  0.3319906193359329  0.1520448643373236
  0.3245011222440825  0.5780514299450239  0.2303816807563361
  0.5726883171765431  0.3314271530626352  0.2328890822883606
  0.0245791883870333  0.2783724223254469  0.2293363151207703
  0.2970345496403767  0.6020023245985540  0.1892116832728611
  0.5975994799862441  0.3025676396472723  0.1933927961123721
  0.0011704493478102  0.3056159401674894  0.1876744535130838
  0.6928254663766713  0.3037264094897844  0.2008793170214300
  0.9067190481520728  0.3039374393894982  0.1961429535741188
  0.2986587937587735  0.6965787459165881  0.1980050660662112
  0.2996544788525248  0.9103699047306649  0.1992214150013315
  0.7443311602830690  0.3040843513122902  0.2045727484723844
  0.7738476687122239  0.2574858565920081  0.2042748862363881
  0.7743685828802925  0.3501755821783573  0.2082090560197698
  0.8254894127838385  0.2571405275401097  0.2033346537647120
  0.8260063096152757  0.3498268644928736  0.2067029328206739
  0.8554608568188691  0.3033985249857326  0.2019632714879058
  0.2993428691823328  0.7478595996851644  0.2034182977069121
  0.3457567199286423  0.7776071323664058  0.2053247424456443
  0.2529300475593576  0.7775727125622170  0.2066613574916416
  0.3456676574338244  0.8292223975599651  0.2051791514534914
  0.2528062895576021  0.8291869404232081  0.2071017859779773
  0.2991674842139228  0.8589627169034064  0.2038822258623175
  0.2438161901319412  0.2484623581285167  0.2081549776543318
  0.2446119950760335  0.3584768998889674  0.2022432641303597
  0.3540436204873796  0.2488591973923259  0.2020957301282590
  0.3544220492161253  0.3592128415041607  0.2080795333373054
  0.6496170816222755  0.3035328569824417  0.1835044085523797
  0.9490716121043942  0.3054753915365877  0.1760315443434760
  0.2973819929656109  0.6541258838682956  0.1783230995441692
  0.3000577732209272  0.9532842138346400  0.1809823421801338
  0.3002953221130301  0.3030242711850832  0.2980526228060850
  0.1989704562597507  0.1319468431190199  0.1846240724718395
  0.1271637360287936  0.2037558295509679  0.1844723473902965
  0.3991904756820860  0.1317735423762072  0.2179522336332345
  0.4710467980140896  0.2038557876468684  0.2194642203016453
  0.1997276440865831  0.4754495644229951  0.2198582550398491
  0.1275893128205925  0.4034001418066999  0.2199870497275662
  0.4710160721249135  0.4035807791124481  0.1838849253590543
  0.3992717463086369  0.4753855983655724  0.1826376405119599
  0.3484231879264504  0.1111507697993499  0.1302059524884184
  0.2504759529562905  0.1003369146688652  0.2672224703044798
  0.3484872877535550  0.0183212285458706  0.1223482863578695
  0.2512710544356030  0.0075031718403006  0.2602074993879311
  0.2505433012704154  0.4953443079395828  0.1291450521742778
  0.4923726775708007  0.2529140519658277  0.1332232440335386
  0.1085633444180718  0.3525264644971987  0.1293350718644612
  0.3469049283754817  0.5080700042595709  0.2672171958640553
  0.5018475024680843  0.3544812825914935  0.2673146170311476
  0.0942304392245162  0.2564326760184381  0.2673298124046589
  0.2504574889596244  0.5881190261554112  0.1199754480318433
  0.5852623654566347  0.2526938655507185  0.1262874710679125
  0.0158050229627005  0.3523227632042064  0.1187577460385611
  0.3456190936104521  0.6009590860531306  0.2590281233253368
  0.5948634882378773  0.3537008546109343  0.2611786926619594
  0.0013668164961959  0.2572451729208057  0.2577299637208818
  0.7535956833520654  0.2215334739805213  0.2042250966649109
  0.7547782423487570  0.3864018477380305  0.2108409705574442
  0.8450234600045468  0.2208329546857940  0.2024564972515953
  0.8462024737836707  0.3857698345743224  0.2080445473736646
  0.3819841665283771  0.7578540899816998  0.2056391086315606
  0.2168527833790080  0.7575587250443433  0.2077305070888071
  0.3818057956279274  0.8491864097857645  0.2053183328611907
  0.2165814389730744  0.8489435297698860  0.2085003703861961
  0.3234339873172846  0.3251059871068866  0.3209721347724391
  0.2790979205210927  0.2795800765895731  0.3215481004761691
  0.2994397543897252  0.3035129320311545  0.2221053739512905
 
  0.00000000E+00  0.00000000E+00  0.00000000E+00
  0.00000000E+00  0.00000000E+00  0.00000000E+00
  0.00000000E+00  0.00000000E+00  0.00000000E+00
  0.00000000E+00  0.00000000E+00  0.00000000E+00
  0.00000000E+00  0.00000000E+00  0.00000000E+00
  0.00000000E+00  0.00000000E+00  0.00000000E+00
  0.00000000E+00  0.00000000E+00  0.00000000E+00
  0.00000000E+00  0.00000000E+00  0.00000000E+00
  0.00000000E+00  0.00000000E+00  0.00000000E+00
  0.00000000E+00  0.00000000E+00  0.00000000E+00
  0.00000000E+00  0.00000000E+00  0.00000000E+00
  0.00000000E+00  0.00000000E+00  0.00000000E+00
  0.00000000E+00  0.00000000E+00  0.00000000E+00
  0.00000000E+00  0.00000000E+00  0.00000000E+00
  0.00000000E+00  0.00000000E+00  0.00000000E+00
  0.00000000E+00  0.00000000E+00  0.00000000E+00
  0.00000000E+00  0.00000000E+00  0.00000000E+00
  0.00000000E+00  0.00000000E+00  0.00000000E+00
  0.00000000E+00  0.00000000E+00  0.00000000E+00
  0.00000000E+00  0.00000000E+00  0.00000000E+00
  0.00000000E+00  0.00000000E+00  0.00000000E+00
  0.00000000E+00  0.00000000E+00  0.00000000E+00
  0.00000000E+00  0.00000000E+00  0.00000000E+00
  0.00000000E+00  0.00000000E+00  0.00000000E+00
  0.00000000E+00  0.00000000E+00  0.00000000E+00
  0.00000000E+00  0.00000000E+00  0.00000000E+00
  0.00000000E+00  0.00000000E+00  0.00000000E+00
  0.00000000E+00  0.00000000E+00  0.00000000E+00
  0.00000000E+00  0.00000000E+00  0.00000000E+00
  0.00000000E+00  0.00000000E+00  0.00000000E+00
  0.00000000E+00  0.00000000E+00  0.00000000E+00
  0.00000000E+00  0.00000000E+00  0.00000000E+00
  0.00000000E+00  0.00000000E+00  0.00000000E+00
  0.00000000E+00  0.00000000E+00  0.00000000E+00
  0.00000000E+00  0.00000000E+00  0.00000000E+00
  0.00000000E+00  0.00000000E+00  0.00000000E+00
  0.00000000E+00  0.00000000E+00  0.00000000E+00
  0.00000000E+00  0.00000000E+00  0.00000000E+00
  0.00000000E+00  0.00000000E+00  0.00000000E+00
  0.00000000E+00  0.00000000E+00  0.00000000E+00
  0.00000000E+00  0.00000000E+00  0.00000000E+00
  0.00000000E+00  0.00000000E+00  0.00000000E+00
  0.00000000E+00  0.00000000E+00  0.00000000E+00
  0.00000000E+00  0.00000000E+00  0.00000000E+00
  0.00000000E+00  0.00000000E+00  0.00000000E+00
  0.00000000E+00  0.00000000E+00  0.00000000E+00
  0.00000000E+00  0.00000000E+00  0.00000000E+00
  0.00000000E+00  0.00000000E+00  0.00000000E+00
  0.00000000E+00  0.00000000E+00  0.00000000E+00
  0.00000000E+00  0.00000000E+00  0.00000000E+00
  0.00000000E+00  0.00000000E+00  0.00000000E+00
  0.00000000E+00  0.00000000E+00  0.00000000E+00
  0.00000000E+00  0.00000000E+00  0.00000000E+00
  0.00000000E+00  0.00000000E+00  0.00000000E+00
  0.00000000E+00  0.00000000E+00  0.00000000E+00
  0.00000000E+00  0.00000000E+00  0.00000000E+00
  0.00000000E+00  0.00000000E+00  0.00000000E+00
  0.00000000E+00  0.00000000E+00  0.00000000E+00
  0.00000000E+00  0.00000000E+00  0.00000000E+00
  0.00000000E+00  0.00000000E+00  0.00000000E+00
  0.00000000E+00  0.00000000E+00  0.00000000E+00
  0.00000000E+00  0.00000000E+00  0.00000000E+00
  0.00000000E+00  0.00000000E+00  0.00000000E+00
  0.00000000E+00  0.00000000E+00  0.00000000E+00
  0.00000000E+00  0.00000000E+00  0.00000000E+00
  0.00000000E+00  0.00000000E+00  0.00000000E+00
  0.00000000E+00  0.00000000E+00  0.00000000E+00
  0.00000000E+00  0.00000000E+00  0.00000000E+00
  0.00000000E+00  0.00000000E+00  0.00000000E+00
  0.00000000E+00  0.00000000E+00  0.00000000E+00
  0.00000000E+00  0.00000000E+00  0.00000000E+00
  0.00000000E+00  0.00000000E+00  0.00000000E+00
  0.00000000E+00  0.00000000E+00  0.00000000E+00
  0.00000000E+00  0.00000000E+00  0.00000000E+00
  0.00000000E+00  0.00000000E+00  0.00000000E+00
  0.00000000E+00  0.00000000E+00  0.00000000E+00
  0.00000000E+00  0.00000000E+00  0.00000000E+00
  0.00000000E+00  0.00000000E+00  0.00000000E+00
  0.00000000E+00  0.00000000E+00  0.00000000E+00
  0.00000000E+00  0.00000000E+00  0.00000000E+00
  0.00000000E+00  0.00000000E+00  0.00000000E+00
  0.00000000E+00  0.00000000E+00  0.00000000E+00
  0.00000000E+00  0.00000000E+00  0.00000000E+00
  0.00000000E+00  0.00000000E+00  0.00000000E+00
  0.00000000E+00  0.00000000E+00  0.00000000E+00
  0.00000000E+00  0.00000000E+00  0.00000000E+00
  0.00000000E+00  0.00000000E+00  0.00000000E+00
  0.00000000E+00  0.00000000E+00  0.00000000E+00
  0.00000000E+00  0.00000000E+00  0.00000000E+00
  0.00000000E+00  0.00000000E+00  0.00000000E+00
  0.00000000E+00  0.00000000E+00  0.00000000E+00
  0.00000000E+00  0.00000000E+00  0.00000000E+00
  0.00000000E+00  0.00000000E+00  0.00000000E+00
  0.00000000E+00  0.00000000E+00  0.00000000E+00
  0.00000000E+00  0.00000000E+00  0.00000000E+00
  0.00000000E+00  0.00000000E+00  0.00000000E+00
  0.00000000E+00  0.00000000E+00  0.00000000E+00
  0.00000000E+00  0.00000000E+00  0.00000000E+00
  0.00000000E+00  0.00000000E+00  0.00000000E+00
  0.00000000E+00  0.00000000E+00  0.00000000E+00
  0.00000000E+00  0.00000000E+00  0.00000000E+00
  0.00000000E+00  0.00000000E+00  0.00000000E+00
  0.00000000E+00  0.00000000E+00  0.00000000E+00
  0.00000000E+00  0.00000000E+00  0.00000000E+00
