Ti-pyridine-N4_nh2                      
   1.00000000000000     
    12.5043975564000007    0.0000000000000000    0.0000000000000000
     0.0000000000000000   12.8224875187999992    0.0000000000000000
     0.0000000000000000    0.0000000000000000   20.0000000000000000
   C    N    Ti   H 
    54     5     1     2
Direct
  0.0521757735513929  0.0472328817596354  0.1584884437982619
  0.1525960506373862  0.1023716111136354  0.1580718042843915
  0.1520730845606260  0.2138151850250372  0.1572965131368231
  0.0521986699280744  0.2690763940412925  0.1569358151540713
  0.2528485231061912  0.0477546025964448  0.1572407123206553
  0.3532640910060368  0.1036980876921185  0.1557523277226372
  0.3521074561825843  0.2153498692502694  0.1554893949086253
  0.2510463589147821  0.2691951192483587  0.1561392964927820
  0.4533441263005639  0.0482315716127750  0.1549194086724672
  0.5522068788691047  0.1066753871688946  0.1549183929798299
  0.5522135955853423  0.2204164877940852  0.1554586435667389
  0.4499489254966201  0.2751547094245730  0.1555724054659329
  0.6510417085549540  0.0482090822800458  0.1549546140139286
  0.7511209742470329  0.1036697205440250  0.1558007180881902
  0.7523026935472682  0.2153155706027090  0.1555249460610361
  0.6544699591271650  0.2751460410121638  0.1555710865601869
  0.8515246465020023  0.0477308074856719  0.1572278402386807
  0.9517619581145841  0.1023803403202809  0.1580751941480477
  0.9523175061012529  0.2138159108308301  0.1573254518285377
  0.8533559044628304  0.2691619413818599  0.1561513573753425
  0.0522090455990823  0.3800630144843554  0.1558393841497980
  0.1506381741812070  0.4362112062789458  0.1553557478685068
  0.1506308718890443  0.5475651170318356  0.1553474031517131
  0.0521991200520254  0.6036952584853146  0.1558407753937796
  0.2493062918688528  0.3807415611966411  0.1552917095224129
  0.3478549533693293  0.4356650712631281  0.1550358863190070
  0.3478421040191410  0.5480897198266672  0.1550321992592856
  0.2492870116165086  0.6030288981128185  0.1552817047161350
  0.7566070454184978  0.4356646047552590  0.1549576459203532
  0.7566133558076108  0.5480799673968364  0.1549529262478196
  0.8551228049482105  0.3807077506527173  0.1552763811236589
  0.9537675293241084  0.4361837394385669  0.1553920600338556
  0.9537689399317467  0.5475494667673257  0.1554076727835517
  0.8551303744978069  0.6030245767619015  0.1552812163063416
  0.0521907285667965  0.7146824242560774  0.1569394685471046
  0.1520699357265563  0.7699510695049707  0.1573036423901121
  0.0521667503278209  0.9365189554756206  0.1584880073362138
  0.2510319695588542  0.7145739291776619  0.1561374974655455
  0.3520905403928278  0.7684059076916638  0.1554817691396400
  0.3532599702573468  0.8800598189480527  0.1557504659825168
  0.2528402674632665  0.9360087526127381  0.1572427281515420
  0.4499305944012963  0.7086015861687865  0.1555490146775486
  0.5522030312557796  0.7633406650847826  0.1554294646657674
  0.5522028698477138  0.8770774212494951  0.1548882663825374
  0.4533407272229583  0.9355315182299864  0.1549044403397221
  0.6544654916975011  0.7085869037088022  0.1555593509273658
  0.7522961782106430  0.7684068605962070  0.1555134505389638
  0.7511089880981465  0.8800561588206856  0.1558001962879417
  0.6510407248515440  0.9355243696086589  0.1549425371936428
  0.8533646460115752  0.7145664809155509  0.1561367424811995
  0.9523157094350290  0.7699341678752918  0.1573004620317395
  0.8515192939199272  0.9359882367195085  0.1572197355595313
  0.1525874694480253  0.8813880653206237  0.1580778128962202
  0.9517686035987839  0.8813665222445985  0.1580487354375956
  0.4445095126761503  0.3828377007632545  0.1569962461423524
  0.4444964284302789  0.6009124141608110  0.1569859485336525
  0.6599334495757121  0.3828504714832640  0.1569399633677104
  0.6599397488622034  0.6008875574087424  0.1569262755628777
  0.5523620926762035  0.4919073952874587  0.2895441828782138
  0.5522603287084187  0.4918813521890662  0.1937218466311028
  0.6190564665452397  0.4919969817027502  0.3190342737637001
  0.4855045305373191  0.4919624192345605  0.3188970076295597
 
  0.00000000E+00  0.00000000E+00  0.00000000E+00
  0.00000000E+00  0.00000000E+00  0.00000000E+00
  0.00000000E+00  0.00000000E+00  0.00000000E+00
  0.00000000E+00  0.00000000E+00  0.00000000E+00
  0.00000000E+00  0.00000000E+00  0.00000000E+00
  0.00000000E+00  0.00000000E+00  0.00000000E+00
  0.00000000E+00  0.00000000E+00  0.00000000E+00
  0.00000000E+00  0.00000000E+00  0.00000000E+00
  0.00000000E+00  0.00000000E+00  0.00000000E+00
  0.00000000E+00  0.00000000E+00  0.00000000E+00
  0.00000000E+00  0.00000000E+00  0.00000000E+00
  0.00000000E+00  0.00000000E+00  0.00000000E+00
  0.00000000E+00  0.00000000E+00  0.00000000E+00
  0.00000000E+00  0.00000000E+00  0.00000000E+00
  0.00000000E+00  0.00000000E+00  0.00000000E+00
  0.00000000E+00  0.00000000E+00  0.00000000E+00
  0.00000000E+00  0.00000000E+00  0.00000000E+00
  0.00000000E+00  0.00000000E+00  0.00000000E+00
  0.00000000E+00  0.00000000E+00  0.00000000E+00
  0.00000000E+00  0.00000000E+00  0.00000000E+00
  0.00000000E+00  0.00000000E+00  0.00000000E+00
  0.00000000E+00  0.00000000E+00  0.00000000E+00
  0.00000000E+00  0.00000000E+00  0.00000000E+00
  0.00000000E+00  0.00000000E+00  0.00000000E+00
  0.00000000E+00  0.00000000E+00  0.00000000E+00
  0.00000000E+00  0.00000000E+00  0.00000000E+00
  0.00000000E+00  0.00000000E+00  0.00000000E+00
  0.00000000E+00  0.00000000E+00  0.00000000E+00
  0.00000000E+00  0.00000000E+00  0.00000000E+00
  0.00000000E+00  0.00000000E+00  0.00000000E+00
  0.00000000E+00  0.00000000E+00  0.00000000E+00
  0.00000000E+00  0.00000000E+00  0.00000000E+00
  0.00000000E+00  0.00000000E+00  0.00000000E+00
  0.00000000E+00  0.00000000E+00  0.00000000E+00
  0.00000000E+00  0.00000000E+00  0.00000000E+00
  0.00000000E+00  0.00000000E+00  0.00000000E+00
  0.00000000E+00  0.00000000E+00  0.00000000E+00
  0.00000000E+00  0.00000000E+00  0.00000000E+00
  0.00000000E+00  0.00000000E+00  0.00000000E+00
  0.00000000E+00  0.00000000E+00  0.00000000E+00
  0.00000000E+00  0.00000000E+00  0.00000000E+00
  0.00000000E+00  0.00000000E+00  0.00000000E+00
  0.00000000E+00  0.00000000E+00  0.00000000E+00
  0.00000000E+00  0.00000000E+00  0.00000000E+00
  0.00000000E+00  0.00000000E+00  0.00000000E+00
  0.00000000E+00  0.00000000E+00  0.00000000E+00
  0.00000000E+00  0.00000000E+00  0.00000000E+00
  0.00000000E+00  0.00000000E+00  0.00000000E+00
  0.00000000E+00  0.00000000E+00  0.00000000E+00
  0.00000000E+00  0.00000000E+00  0.00000000E+00
  0.00000000E+00  0.00000000E+00  0.00000000E+00
  0.00000000E+00  0.00000000E+00  0.00000000E+00
  0.00000000E+00  0.00000000E+00  0.00000000E+00
  0.00000000E+00  0.00000000E+00  0.00000000E+00
  0.00000000E+00  0.00000000E+00  0.00000000E+00
  0.00000000E+00  0.00000000E+00  0.00000000E+00
  0.00000000E+00  0.00000000E+00  0.00000000E+00
  0.00000000E+00  0.00000000E+00  0.00000000E+00
  0.00000000E+00  0.00000000E+00  0.00000000E+00
  0.00000000E+00  0.00000000E+00  0.00000000E+00
  0.00000000E+00  0.00000000E+00  0.00000000E+00
  0.00000000E+00  0.00000000E+00  0.00000000E+00
