Cr-pyrrole-N4_nh2                       
   1.00000000000000     
     8.4020493150999993   -0.0000108275000000    0.0000003874000000
    -0.0000111152000000    8.4039672001000003   -0.0000022351000000
    -0.0000034185000000   -0.0000074639000000   17.8531369200000007
   C    N    Cr   H 
    20     5     1     2
Direct
  0.5000156219073025  0.0855085382330780  0.1537753844810268
  0.3526988473696144  0.1665169691354986  0.1535052369458581
  0.6473277837371875  0.1665125817066202  0.1535055650452213
  0.7956303320655668  0.9171902754119280  0.1534751542020060
  0.7956329732639479  0.0827500078392127  0.1534748048875832
  0.9172416240709598  0.2042819972822818  0.1532911461075530
  0.8335169291009151  0.3526671346951173  0.1528574146956610
  0.2043982482826025  0.0827508050807220  0.1534769634028624
  0.0827901450851941  0.2042822285549065  0.1532909376434686
  0.1665119627200359  0.3526691048074490  0.1528575374825450
  0.0855421661928045  0.4999762380436137  0.1527758459113860
  0.1665114175504473  0.6472790171426517  0.1528609142643204
  0.3526943235281387  0.8334298380419066  0.1535039139008551
  0.2043926455151139  0.9171933681221659  0.1534770132184212
  0.0827801974731161  0.7956609312826756  0.1532953507349339
  0.6473274719890149  0.8334273786187555  0.1535025044710881
  0.8335133250311999  0.6472770658817338  0.1528591337243718
  0.9172401586415909  0.7956582692565018  0.1532945903308355
  0.5000143577430473  0.9144357158014241  0.1537729557266152
  0.9144816815696687  0.4999744406769590  0.1527755670897566
  0.6704887189092329  0.3296342655189668  0.1533200176439174
  0.3295408726300870  0.3296376805379861  0.1533211204448651
  0.3295398338467578  0.6703127078719271  0.1533200112192164
  0.6704855626221039  0.6703082038590937  0.1533190394512108
  0.5000191345418896  0.4999728804924751  0.2706812381494291
  0.5000163762104679  0.4999722826038410  0.1690137537881220
  0.6015658679845397  0.4999778854134572  0.3018893581536323
  0.3984730554092529  0.4999731344819048  0.3018895044325987
 
  0.00000000E+00  0.00000000E+00  0.00000000E+00
  0.00000000E+00  0.00000000E+00  0.00000000E+00
  0.00000000E+00  0.00000000E+00  0.00000000E+00
  0.00000000E+00  0.00000000E+00  0.00000000E+00
  0.00000000E+00  0.00000000E+00  0.00000000E+00
  0.00000000E+00  0.00000000E+00  0.00000000E+00
  0.00000000E+00  0.00000000E+00  0.00000000E+00
  0.00000000E+00  0.00000000E+00  0.00000000E+00
  0.00000000E+00  0.00000000E+00  0.00000000E+00
  0.00000000E+00  0.00000000E+00  0.00000000E+00
  0.00000000E+00  0.00000000E+00  0.00000000E+00
  0.00000000E+00  0.00000000E+00  0.00000000E+00
  0.00000000E+00  0.00000000E+00  0.00000000E+00
  0.00000000E+00  0.00000000E+00  0.00000000E+00
  0.00000000E+00  0.00000000E+00  0.00000000E+00
  0.00000000E+00  0.00000000E+00  0.00000000E+00
  0.00000000E+00  0.00000000E+00  0.00000000E+00
  0.00000000E+00  0.00000000E+00  0.00000000E+00
  0.00000000E+00  0.00000000E+00  0.00000000E+00
  0.00000000E+00  0.00000000E+00  0.00000000E+00
  0.00000000E+00  0.00000000E+00  0.00000000E+00
  0.00000000E+00  0.00000000E+00  0.00000000E+00
  0.00000000E+00  0.00000000E+00  0.00000000E+00
  0.00000000E+00  0.00000000E+00  0.00000000E+00
  0.00000000E+00  0.00000000E+00  0.00000000E+00
  0.00000000E+00  0.00000000E+00  0.00000000E+00
  0.00000000E+00  0.00000000E+00  0.00000000E+00
  0.00000000E+00  0.00000000E+00  0.00000000E+00
