Co-pyrridine-N1_nh2                     
   1.00000000000000     
    12.5146205774000006    0.0000000000000000    0.0000000000000000
     0.0000000000000000   12.7877875199000002    0.0000000000000000
     0.0000000000000000    0.0000000000000000   19.8713392818999992
   C    N    Co   H 
    57     2     1     2
Direct
  0.0556297913444554  0.0484356043129522  0.1559898183217956
  0.1557248088408049  0.1029062853706142  0.1559612404392260
  0.1550378008797390  0.2141178664036368  0.1558873268999205
  0.0552230131029938  0.2693581789953453  0.1554881899497201
  0.2565011032822284  0.0482416541785444  0.1566614200717132
  0.3565000017153424  0.1040396051200367  0.1580171077916893
  0.3557771309206633  0.2164811540442853  0.1588580299376781
  0.2546794880104091  0.2694321045586051  0.1572385269983704
  0.4563093519250625  0.0480912833346437  0.1592974933163028
  0.5557081020131764  0.1055920908558642  0.1598032908591259
  0.5554915651009377  0.2179194763133608  0.1611214149552534
  0.4554682265377523  0.2748633271322605  0.1624194660415435
  0.6552054542889987  0.0484720423935546  0.1587023175970279
  0.7549616342146651  0.1043486523149047  0.1575075210345944
  0.7550771357410704  0.2166703212414928  0.1571802448828018
  0.6553765724138175  0.2749734371091173  0.1592975376999435
  0.8549810369037860  0.0486812305134693  0.1570854617602277
  0.9552902989524664  0.1033987373415484  0.1562219040778748
  0.9553475334264514  0.2146514233789085  0.1556934401660542
  0.8554953682516152  0.2705889560879692  0.1561429387051802
  0.0549591108245050  0.3813585460491289  0.1556790090147158
  0.1536474983658437  0.4366602125683989  0.1563159383789270
  0.1535072525877585  0.5483900042212346  0.1566746126178944
  0.0551873237164564  0.6040698760001988  0.1561475443613478
  0.2525538252551717  0.3805559419249301  0.1578741794094911
  0.3502298587799945  0.4360324546181795  0.1630546045266436
  0.3493310583806966  0.5483751411320832  0.1644740215033913
  0.2521236867391795  0.6042007685793528  0.1591111438382123
  0.7579143098274425  0.4379300510288255  0.1562236341856136
  0.7594666810109453  0.5512115116461254  0.1566793667473168
  0.8567799915853439  0.3823002877946749  0.1559920267020146
  0.9562837356001572  0.4371726647849505  0.1558806226231794
  0.9566894836318680  0.5485911471486794  0.1561147096669509
  0.8581545922335854  0.6049428822544998  0.1566169571851654
  0.0558270291943036  0.7160504486098772  0.1561739720940712
  0.1555067287776732  0.7709814888156016  0.1567957437107408
  0.0558116809572312  0.9373605036009877  0.1561391191615279
  0.2549344706940614  0.7153027798412075  0.1586525748340545
  0.3561440334151370  0.7679551750140747  0.1602540879081095
  0.3566931410916882  0.8802134101766004  0.1589287356897278
  0.2567045693682162  0.9365672863866954  0.1570162598773151
  0.4558856194908789  0.7090651029413203  0.1643958222998295
  0.5567422448161191  0.7648144050436143  0.1626398633075406
  0.5565236063531335  0.8777824130259244  0.1607146088014758
  0.4566855328774495  0.9353894282669385  0.1598481571664640
  0.6581992744213901  0.7091619867889661  0.1604526720374834
  0.7564826424652544  0.7690247632257797  0.1584208245535204
  0.7553811502758514  0.8811001691106741  0.1583945897517651
  0.6553319924840051  0.9359945577627946  0.1591266289286783
  0.8570552155930579  0.7160746136580496  0.1571818152879730
  0.9564652386257475  0.7714878481772522  0.1564827420499819
  0.8551624966230211  0.9369702587547880  0.1575114759233885
  0.1558832199708594  0.8822637879968644  0.1564081645402582
  0.9556871650405356  0.8825611316184677  0.1566783480057987
  0.4508649465096226  0.3862289292387377  0.1668975986458419
  0.4488971066898775  0.5982248728650731  0.1705581650910964
  0.6580362189027065  0.3864088707520392  0.1597657584290550
  0.6630782770158244  0.6012511419583549  0.1596138236971651
  0.5119957610409082  0.4905636043590445  0.2770336312827604
  0.5546894609857934  0.4922856595828328  0.1895270687893789
  0.5078318162400756  0.4151109499264517  0.2948438228688697
  0.4415956749348390  0.5257633105698220  0.2909070372249034
 
  0.00000000E+00  0.00000000E+00  0.00000000E+00
  0.00000000E+00  0.00000000E+00  0.00000000E+00
  0.00000000E+00  0.00000000E+00  0.00000000E+00
  0.00000000E+00  0.00000000E+00  0.00000000E+00
  0.00000000E+00  0.00000000E+00  0.00000000E+00
  0.00000000E+00  0.00000000E+00  0.00000000E+00
  0.00000000E+00  0.00000000E+00  0.00000000E+00
  0.00000000E+00  0.00000000E+00  0.00000000E+00
  0.00000000E+00  0.00000000E+00  0.00000000E+00
  0.00000000E+00  0.00000000E+00  0.00000000E+00
  0.00000000E+00  0.00000000E+00  0.00000000E+00
  0.00000000E+00  0.00000000E+00  0.00000000E+00
  0.00000000E+00  0.00000000E+00  0.00000000E+00
  0.00000000E+00  0.00000000E+00  0.00000000E+00
  0.00000000E+00  0.00000000E+00  0.00000000E+00
  0.00000000E+00  0.00000000E+00  0.00000000E+00
  0.00000000E+00  0.00000000E+00  0.00000000E+00
  0.00000000E+00  0.00000000E+00  0.00000000E+00
  0.00000000E+00  0.00000000E+00  0.00000000E+00
  0.00000000E+00  0.00000000E+00  0.00000000E+00
  0.00000000E+00  0.00000000E+00  0.00000000E+00
  0.00000000E+00  0.00000000E+00  0.00000000E+00
  0.00000000E+00  0.00000000E+00  0.00000000E+00
  0.00000000E+00  0.00000000E+00  0.00000000E+00
  0.00000000E+00  0.00000000E+00  0.00000000E+00
  0.00000000E+00  0.00000000E+00  0.00000000E+00
  0.00000000E+00  0.00000000E+00  0.00000000E+00
  0.00000000E+00  0.00000000E+00  0.00000000E+00
  0.00000000E+00  0.00000000E+00  0.00000000E+00
  0.00000000E+00  0.00000000E+00  0.00000000E+00
  0.00000000E+00  0.00000000E+00  0.00000000E+00
  0.00000000E+00  0.00000000E+00  0.00000000E+00
  0.00000000E+00  0.00000000E+00  0.00000000E+00
  0.00000000E+00  0.00000000E+00  0.00000000E+00
  0.00000000E+00  0.00000000E+00  0.00000000E+00
  0.00000000E+00  0.00000000E+00  0.00000000E+00
  0.00000000E+00  0.00000000E+00  0.00000000E+00
  0.00000000E+00  0.00000000E+00  0.00000000E+00
  0.00000000E+00  0.00000000E+00  0.00000000E+00
  0.00000000E+00  0.00000000E+00  0.00000000E+00
  0.00000000E+00  0.00000000E+00  0.00000000E+00
  0.00000000E+00  0.00000000E+00  0.00000000E+00
  0.00000000E+00  0.00000000E+00  0.00000000E+00
  0.00000000E+00  0.00000000E+00  0.00000000E+00
  0.00000000E+00  0.00000000E+00  0.00000000E+00
  0.00000000E+00  0.00000000E+00  0.00000000E+00
  0.00000000E+00  0.00000000E+00  0.00000000E+00
  0.00000000E+00  0.00000000E+00  0.00000000E+00
  0.00000000E+00  0.00000000E+00  0.00000000E+00
  0.00000000E+00  0.00000000E+00  0.00000000E+00
  0.00000000E+00  0.00000000E+00  0.00000000E+00
  0.00000000E+00  0.00000000E+00  0.00000000E+00
  0.00000000E+00  0.00000000E+00  0.00000000E+00
  0.00000000E+00  0.00000000E+00  0.00000000E+00
  0.00000000E+00  0.00000000E+00  0.00000000E+00
  0.00000000E+00  0.00000000E+00  0.00000000E+00
  0.00000000E+00  0.00000000E+00  0.00000000E+00
  0.00000000E+00  0.00000000E+00  0.00000000E+00
  0.00000000E+00  0.00000000E+00  0.00000000E+00
  0.00000000E+00  0.00000000E+00  0.00000000E+00
  0.00000000E+00  0.00000000E+00  0.00000000E+00
  0.00000000E+00  0.00000000E+00  0.00000000E+00
