Fe-pyrridine-N2_nh2                     
   1.00000000000000     
    12.5031035145999994    0.0000000000000000    0.0000000000000000
     0.0000000000000000   12.7949537950999996    0.0000000000000000
     0.0000000000000000    0.0000000000000000   19.8713392818999992
   C    N    Fe   H 
    56     3     1     2
Direct
  0.0524807180554442  0.0473313676811869  0.1578147031062201
  0.1526750620103367  0.1020320884419937  0.1575560181776782
  0.1520449959263858  0.2131622150058794  0.1574580883713531
  0.0522614025011618  0.2684017181249793  0.1571391002658772
  0.2534630724390375  0.0476396333154789  0.1572092583697571
  0.3535498161150682  0.1036636838542573  0.1570362178829291
  0.3525933646004378  0.2158217091483473  0.1573433293615751
  0.2512498384477209  0.2685763083269510  0.1576538517273657
  0.4539133821355780  0.0483025580404382  0.1573728783689219
  0.5534288181404816  0.1065776735509437  0.1578968148121212
  0.5534627406417026  0.2197445890436927  0.1590585197359083
  0.4519817565198737  0.2752438165981370  0.1592028032628417
  0.6522159331812210  0.0481626082483352  0.1574970351351815
  0.7520465989711060  0.1034994907726797  0.1572575211024727
  0.7531785570550609  0.2155210244072433  0.1571803469881057
  0.6552353586914025  0.2754019871421527  0.1586854062623984
  0.8519736616455300  0.0477044817834485  0.1574882502518936
  0.9523699530468072  0.1021578974417755  0.1576012236617576
  0.9529297859579998  0.2134012645658452  0.1570806082579782
  0.8536241893232548  0.2690744409232143  0.1567135042491339
  0.0514334523478281  0.3802401926729395  0.1567326640809160
  0.1493931114909227  0.4359556810175755  0.1574949627861392
  0.1493960577213681  0.5477274980910438  0.1574770365703752
  0.0514431418413158  0.6034675092637335  0.1566880574506539
  0.2477851720568038  0.3797487672137788  0.1583882048198621
  0.3443116643580807  0.4356290017129353  0.1602698929817666
  0.3443084536993092  0.5480958166602803  0.1603259361862702
  0.2477816915304783  0.6039618274827345  0.1583883642264116
  0.7562633641955194  0.4347921308209560  0.1572876847354510
  0.7562536779608633  0.5489158899167493  0.1573186783497199
  0.8548530832696566  0.3804862097589734  0.1562171282635649
  0.9533222562776790  0.4361553481589653  0.1561175687942711
  0.9533154417328185  0.5475850848218025  0.1561019388045925
  0.8548346751893572  0.6032436469241007  0.1562127715993271
  0.0522709753884509  0.7153146754164148  0.1570376447788485
  0.1520519932211020  0.7705586380176216  0.1573436532180296
  0.0524743374264761  0.9364008576277525  0.1577755623251391
  0.2512553116342397  0.7151501725511512  0.1576134207834080
  0.3525821586818408  0.7679220848733613  0.1573249450637388
  0.3535337134143921  0.8800864465726778  0.1570064342763372
  0.2534497143131882  0.9361064659395667  0.1571890210011072
  0.4519651382462061  0.7084909687617353  0.1592960706286188
  0.5534499853908796  0.7639940398179166  0.1591312600269423
  0.5534318023494408  0.8771802483999618  0.1579522226806822
  0.4539135305334082  0.9354323211024280  0.1573837951003631
  0.6552022665787737  0.7083277409463283  0.1587601182861956
  0.7531540789198135  0.7681972479017963  0.1572076173945159
  0.7520398126772739  0.8802311447181052  0.1572687426435993
  0.6522217446750849  0.9355897118078939  0.1575266884792937
  0.8536093533121616  0.7146640446102313  0.1566968325010991
  0.9529266965436961  0.7703238796942415  0.1570097954988583
  0.8519737406485692  0.9360223529364193  0.1574730885499351
  0.1526789827750183  0.8816960086138348  0.1574813314748214
  0.9523707289403696  0.8815719093250879  0.1575449260155400
  0.4449263223850657  0.3860330319500890  0.1629080456023285
  0.4449454832339038  0.5977053803618467  0.1631066142733531
  0.6607803224318115  0.3831613256624407  0.1601082141441968
  0.6607212582775435  0.6005294487423624  0.1601942104584024
  0.5486431367050806  0.4902694173750520  0.2804955472678359
  0.5489201808098058  0.4918167548303530  0.1877169886514737
  0.6165806253733455  0.4934848005314112  0.3089138253409426
  0.4817392046739596  0.4925877774690797  0.3098253914966493
 
  0.00000000E+00  0.00000000E+00  0.00000000E+00
  0.00000000E+00  0.00000000E+00  0.00000000E+00
  0.00000000E+00  0.00000000E+00  0.00000000E+00
  0.00000000E+00  0.00000000E+00  0.00000000E+00
  0.00000000E+00  0.00000000E+00  0.00000000E+00
  0.00000000E+00  0.00000000E+00  0.00000000E+00
  0.00000000E+00  0.00000000E+00  0.00000000E+00
  0.00000000E+00  0.00000000E+00  0.00000000E+00
  0.00000000E+00  0.00000000E+00  0.00000000E+00
  0.00000000E+00  0.00000000E+00  0.00000000E+00
  0.00000000E+00  0.00000000E+00  0.00000000E+00
  0.00000000E+00  0.00000000E+00  0.00000000E+00
  0.00000000E+00  0.00000000E+00  0.00000000E+00
  0.00000000E+00  0.00000000E+00  0.00000000E+00
  0.00000000E+00  0.00000000E+00  0.00000000E+00
  0.00000000E+00  0.00000000E+00  0.00000000E+00
  0.00000000E+00  0.00000000E+00  0.00000000E+00
  0.00000000E+00  0.00000000E+00  0.00000000E+00
  0.00000000E+00  0.00000000E+00  0.00000000E+00
  0.00000000E+00  0.00000000E+00  0.00000000E+00
  0.00000000E+00  0.00000000E+00  0.00000000E+00
  0.00000000E+00  0.00000000E+00  0.00000000E+00
  0.00000000E+00  0.00000000E+00  0.00000000E+00
  0.00000000E+00  0.00000000E+00  0.00000000E+00
  0.00000000E+00  0.00000000E+00  0.00000000E+00
  0.00000000E+00  0.00000000E+00  0.00000000E+00
  0.00000000E+00  0.00000000E+00  0.00000000E+00
  0.00000000E+00  0.00000000E+00  0.00000000E+00
  0.00000000E+00  0.00000000E+00  0.00000000E+00
  0.00000000E+00  0.00000000E+00  0.00000000E+00
  0.00000000E+00  0.00000000E+00  0.00000000E+00
  0.00000000E+00  0.00000000E+00  0.00000000E+00
  0.00000000E+00  0.00000000E+00  0.00000000E+00
  0.00000000E+00  0.00000000E+00  0.00000000E+00
  0.00000000E+00  0.00000000E+00  0.00000000E+00
  0.00000000E+00  0.00000000E+00  0.00000000E+00
  0.00000000E+00  0.00000000E+00  0.00000000E+00
  0.00000000E+00  0.00000000E+00  0.00000000E+00
  0.00000000E+00  0.00000000E+00  0.00000000E+00
  0.00000000E+00  0.00000000E+00  0.00000000E+00
  0.00000000E+00  0.00000000E+00  0.00000000E+00
  0.00000000E+00  0.00000000E+00  0.00000000E+00
  0.00000000E+00  0.00000000E+00  0.00000000E+00
  0.00000000E+00  0.00000000E+00  0.00000000E+00
  0.00000000E+00  0.00000000E+00  0.00000000E+00
  0.00000000E+00  0.00000000E+00  0.00000000E+00
  0.00000000E+00  0.00000000E+00  0.00000000E+00
  0.00000000E+00  0.00000000E+00  0.00000000E+00
  0.00000000E+00  0.00000000E+00  0.00000000E+00
  0.00000000E+00  0.00000000E+00  0.00000000E+00
  0.00000000E+00  0.00000000E+00  0.00000000E+00
  0.00000000E+00  0.00000000E+00  0.00000000E+00
  0.00000000E+00  0.00000000E+00  0.00000000E+00
  0.00000000E+00  0.00000000E+00  0.00000000E+00
  0.00000000E+00  0.00000000E+00  0.00000000E+00
  0.00000000E+00  0.00000000E+00  0.00000000E+00
  0.00000000E+00  0.00000000E+00  0.00000000E+00
  0.00000000E+00  0.00000000E+00  0.00000000E+00
  0.00000000E+00  0.00000000E+00  0.00000000E+00
  0.00000000E+00  0.00000000E+00  0.00000000E+00
  0.00000000E+00  0.00000000E+00  0.00000000E+00
  0.00000000E+00  0.00000000E+00  0.00000000E+00
