Fe-pyrridine-N3_nh2                     
   1.00000000000000     
    12.4907659068000001    0.0000000000000000    0.0000000000000000
     0.0000000000000000   12.7633829265000003    0.0000000000000000
     0.0000000000000000    0.0000000000000000   19.8713392818999992
   C    N    Fe   H 
    55     4     1     2
Direct
  0.0522370094327347  0.0484930985309333  0.1580603392619700
  0.1529077125312296  0.1034925750843899  0.1583802427569142
  0.1525149996009512  0.2147354837012552  0.1580724912246321
  0.0523917146884516  0.2697344204762408  0.1571356009119673
  0.2535251825487285  0.0487418314083017  0.1589019738825391
  0.3537939365009121  0.1047719597114393  0.1596901458254548
  0.3531523227295023  0.2169883297634330  0.1597653594984811
  0.2520372108674461  0.2704568434895727  0.1586587002180406
  0.4539187503799501  0.0489369245496876  0.1601796813801534
  0.5532291442193756  0.1069284661852863  0.1612719507121078
  0.5534111838504377  0.2204677043585344  0.1622726966481308
  0.4524683842021590  0.2764845473492882  0.1617650592486158
  0.6516533646813734  0.0484544203623686  0.1605925347006410
  0.7513443736313806  0.1045560728746889  0.1602566021194323
  0.7521571711917648  0.2168834645205585  0.1602021575778525
  0.6541308286471995  0.2766523548774144  0.1615965714719989
  0.8514294414574388  0.0485653835837129  0.1591636352589588
  0.9519459865679358  0.1032816605644700  0.1583909420740890
  0.9524872105839385  0.2146748019221847  0.1579448086369222
  0.8532324673461870  0.2701783576529400  0.1584298260973635
  0.0518349990241473  0.3810340897928737  0.1559190620341549
  0.1502013444058904  0.4372376270030229  0.1561780217440888
  0.1501006316731262  0.5486194339712571  0.1558432342790159
  0.0519568723022044  0.6046100239485279  0.1551564021443191
  0.2493174790667155  0.3820621817447935  0.1577913972896111
  0.3467692171851124  0.4385746454752688  0.1592152723637559
  0.3459767945535672  0.5503307585890095  0.1584396312131004
  0.2486171874318006  0.6051303776775907  0.1570362647486804
  0.7560689684252184  0.4366750928753650  0.1577122690102150
  0.7567278502139472  0.5489326174222380  0.1567570422590675
  0.8543863087954521  0.3815393602639048  0.1569481538916459
  0.9534437960865694  0.4370429736293865  0.1554745246955717
  0.9537564019894812  0.5483660144338024  0.1549022603276484
  0.8551215109031730  0.6038702466448300  0.1553742892359364
  0.0520321567248836  0.7160128099340871  0.1559360223573608
  0.1517754895779356  0.7715805359033422  0.1567172638188254
  0.0522200072117713  0.9375762710231869  0.1576328254181009
  0.2508488010083478  0.7162140160900574  0.1571505518054062
  0.3523518907309933  0.7684091591531877  0.1579330240616232
  0.3536147635766819  0.8806084300883477  0.1583651367504991
  0.2535561677274684  0.9369345452092173  0.1583408326438807
  0.4503099019040990  0.7074151430385249  0.1593889356889945
  0.5523279452676644  0.7626282496764761  0.1597163840112289
  0.5524593463221139  0.8768785723761686  0.1595338467890224
  0.4538613442121235  0.9358521365645627  0.1592933773760312
  0.6544953496838674  0.7076366608658917  0.1589047343322226
  0.7523871908036165  0.7682997393245236  0.1575210345761791
  0.7513055220780995  0.8802197128429982  0.1585213607013028
  0.6513411671519971  0.9354305032974213  0.1596326125740376
  0.8532966713206310  0.7151223151775150  0.1562782632626181
  0.9524845161207788  0.7710260959803289  0.1564547415461961
  0.8513485122641373  0.9367235946733117  0.1583965244990287
  0.1526115453997511  0.8826387567524198  0.1575087431773204
  0.9518822858977249  0.8823206965705905  0.1573956682246997
  0.4473289935341165  0.3878428964172308  0.1634497579324623
  0.4441340943395436  0.5993386866540070  0.1602266867917317
  0.6581447131658615  0.3859512427362674  0.1609663761510743
  0.6601030932963240  0.6000056500816184  0.1596514114451701
  0.5488606888131847  0.4945068799116232  0.2765986468323988
  0.5522164300338387  0.4912275325267540  0.1831943180916606
  0.6167498101765119  0.4667493279818446  0.2995051404697384
  0.4845836496046266  0.4598363334612778  0.2995825329398776
 
  0.00000000E+00  0.00000000E+00  0.00000000E+00
  0.00000000E+00  0.00000000E+00  0.00000000E+00
  0.00000000E+00  0.00000000E+00  0.00000000E+00
  0.00000000E+00  0.00000000E+00  0.00000000E+00
  0.00000000E+00  0.00000000E+00  0.00000000E+00
  0.00000000E+00  0.00000000E+00  0.00000000E+00
  0.00000000E+00  0.00000000E+00  0.00000000E+00
  0.00000000E+00  0.00000000E+00  0.00000000E+00
  0.00000000E+00  0.00000000E+00  0.00000000E+00
  0.00000000E+00  0.00000000E+00  0.00000000E+00
  0.00000000E+00  0.00000000E+00  0.00000000E+00
  0.00000000E+00  0.00000000E+00  0.00000000E+00
  0.00000000E+00  0.00000000E+00  0.00000000E+00
  0.00000000E+00  0.00000000E+00  0.00000000E+00
  0.00000000E+00  0.00000000E+00  0.00000000E+00
  0.00000000E+00  0.00000000E+00  0.00000000E+00
  0.00000000E+00  0.00000000E+00  0.00000000E+00
  0.00000000E+00  0.00000000E+00  0.00000000E+00
  0.00000000E+00  0.00000000E+00  0.00000000E+00
  0.00000000E+00  0.00000000E+00  0.00000000E+00
  0.00000000E+00  0.00000000E+00  0.00000000E+00
  0.00000000E+00  0.00000000E+00  0.00000000E+00
  0.00000000E+00  0.00000000E+00  0.00000000E+00
  0.00000000E+00  0.00000000E+00  0.00000000E+00
  0.00000000E+00  0.00000000E+00  0.00000000E+00
  0.00000000E+00  0.00000000E+00  0.00000000E+00
  0.00000000E+00  0.00000000E+00  0.00000000E+00
  0.00000000E+00  0.00000000E+00  0.00000000E+00
  0.00000000E+00  0.00000000E+00  0.00000000E+00
  0.00000000E+00  0.00000000E+00  0.00000000E+00
  0.00000000E+00  0.00000000E+00  0.00000000E+00
  0.00000000E+00  0.00000000E+00  0.00000000E+00
  0.00000000E+00  0.00000000E+00  0.00000000E+00
  0.00000000E+00  0.00000000E+00  0.00000000E+00
  0.00000000E+00  0.00000000E+00  0.00000000E+00
  0.00000000E+00  0.00000000E+00  0.00000000E+00
  0.00000000E+00  0.00000000E+00  0.00000000E+00
  0.00000000E+00  0.00000000E+00  0.00000000E+00
  0.00000000E+00  0.00000000E+00  0.00000000E+00
  0.00000000E+00  0.00000000E+00  0.00000000E+00
  0.00000000E+00  0.00000000E+00  0.00000000E+00
  0.00000000E+00  0.00000000E+00  0.00000000E+00
  0.00000000E+00  0.00000000E+00  0.00000000E+00
  0.00000000E+00  0.00000000E+00  0.00000000E+00
  0.00000000E+00  0.00000000E+00  0.00000000E+00
  0.00000000E+00  0.00000000E+00  0.00000000E+00
  0.00000000E+00  0.00000000E+00  0.00000000E+00
  0.00000000E+00  0.00000000E+00  0.00000000E+00
  0.00000000E+00  0.00000000E+00  0.00000000E+00
  0.00000000E+00  0.00000000E+00  0.00000000E+00
  0.00000000E+00  0.00000000E+00  0.00000000E+00
  0.00000000E+00  0.00000000E+00  0.00000000E+00
  0.00000000E+00  0.00000000E+00  0.00000000E+00
  0.00000000E+00  0.00000000E+00  0.00000000E+00
  0.00000000E+00  0.00000000E+00  0.00000000E+00
  0.00000000E+00  0.00000000E+00  0.00000000E+00
  0.00000000E+00  0.00000000E+00  0.00000000E+00
  0.00000000E+00  0.00000000E+00  0.00000000E+00
  0.00000000E+00  0.00000000E+00  0.00000000E+00
  0.00000000E+00  0.00000000E+00  0.00000000E+00
  0.00000000E+00  0.00000000E+00  0.00000000E+00
  0.00000000E+00  0.00000000E+00  0.00000000E+00
