Cu-pyrridine-N1_nh2                     
   1.00000000000000     
    12.5010809329000008    0.0000000000000000    0.0000000000000000
     0.0000000000000000   12.7972399292999999    0.0000000000000000
     0.0000000000000000    0.0000000000000000   19.8713392818999992
   C    N    Cu   H 
    57     2     1     2
Direct
  0.0521153246806818  0.0496251975013459  0.1587454991356908
  0.1521063200475499  0.1040366566477069  0.1588944778757260
  0.1514762738261264  0.2149992305189564  0.1588427810316764
  0.0518930536251226  0.2702035658170873  0.1586252268360706
  0.2528245368775261  0.0494005824770859  0.1588567266497676
  0.3526745083472884  0.1048598737658651  0.1598169216605589
  0.3518618562246396  0.2172015526658507  0.1601308915417659
  0.2511260240962037  0.2703318481025900  0.1589232157503305
  0.4527002698489607  0.0491326033787608  0.1603417854859752
  0.5522094966372871  0.1068777818294204  0.1616381137808248
  0.5521827215873493  0.2190485516035959  0.1626829516851692
  0.4516003798806665  0.2757510013026657  0.1617537483158555
  0.6518484826890546  0.0495078418167727  0.1610941624484245
  0.7518576630713624  0.1049915396573823  0.1608663552032189
  0.7525099462460518  0.2171820038448752  0.1610961748908647
  0.6530334242629728  0.2752240416450201  0.1626991700411532
  0.8516594967024795  0.0495736031877789  0.1598166932277710
  0.9520538253104915  0.1043828165664751  0.1594233628426823
  0.9523845990066152  0.2154991860965648  0.1593733361734997
  0.8526006076182736  0.2712587691556750  0.1597221365528973
  0.0516280728377903  0.3824555581638594  0.1574833531111555
  0.1497654923368230  0.4378444557268897  0.1569245073724204
  0.1495233828028493  0.5496709554037673  0.1560231016755340
  0.0516338025249750  0.6052653055419187  0.1558499961311626
  0.2483140310301706  0.3814235411020470  0.1579468716605066
  0.3453917922192866  0.4374393542483415  0.1590108686055248
  0.3447079723459540  0.5504632599174238  0.1582367048838688
  0.2477230991007540  0.6059539545128774  0.1562176748214220
  0.7564802669919026  0.4386885538759637  0.1595265896613356
  0.7576087607744630  0.5526064516504214  0.1581874033505706
  0.8545480895247984  0.3827941430157602  0.1584268422687356
  0.9533931853029487  0.4381617366541674  0.1571918277283284
  0.9536792204087758  0.5497409768219603  0.1564323196908421
  0.8556734539215964  0.6064620434636635  0.1568057525676737
  0.0522328589990511  0.7175536947391576  0.1560536703692315
  0.1516175004196303  0.7726309185255941  0.1562230387520201
  0.0521589000642518  0.9386011652267345  0.1577804277973755
  0.2509756945190080  0.7169794530345988  0.1561546281256151
  0.3517958011688582  0.7698581573674368  0.1571281474041806
  0.3526339433000436  0.8818763938087040  0.1579332285185279
  0.2528282377140224  0.9380436212513978  0.1578933414352938
  0.4511385792698068  0.7105506008661981  0.1589850966490355
  0.5530480521196549  0.7657315198486787  0.1596524827879830
  0.5529365624174196  0.8785754864573677  0.1597447351185887
  0.4530221839954442  0.9365979164838465  0.1594037768146001
  0.6552975176457612  0.7106236205502183  0.1590449007402084
  0.7533496229695955  0.7704176189002122  0.1581089025052485
  0.7521064874317687  0.8824713875434751  0.1590314748426195
  0.6519562785661162  0.9370543477939316  0.1600739020621427
  0.8538323694270138  0.7175049804574463  0.1569348067469491
  0.9531820655226486  0.7729836341649825  0.1566448100423038
  0.8517705417720409  0.9381825854243078  0.1588834168762155
  0.1520657330743735  0.8836807190204186  0.1571242061996710
  0.9523201438160219  0.8839220153120133  0.1575954529802981
  0.4448462575078261  0.3865728528048230  0.1613086762384043
  0.4439008415152625  0.6002862421301320  0.1606286419614043
  0.6582341425791224  0.3857657996623733  0.1626433109767595
  0.6623901648485451  0.6031860202823864  0.1590403990328308
  0.5611069085182611  0.4825259647624902  0.2754391129086784
  0.5523091734805849  0.4931827584228765  0.1704160434181551
  0.6137664284396929  0.4256004504010488  0.2916185230419602
  0.4878737463152528  0.4576711936835319  0.2934494318279498
 
  0.00000000E+00  0.00000000E+00  0.00000000E+00
  0.00000000E+00  0.00000000E+00  0.00000000E+00
  0.00000000E+00  0.00000000E+00  0.00000000E+00
  0.00000000E+00  0.00000000E+00  0.00000000E+00
  0.00000000E+00  0.00000000E+00  0.00000000E+00
  0.00000000E+00  0.00000000E+00  0.00000000E+00
  0.00000000E+00  0.00000000E+00  0.00000000E+00
  0.00000000E+00  0.00000000E+00  0.00000000E+00
  0.00000000E+00  0.00000000E+00  0.00000000E+00
  0.00000000E+00  0.00000000E+00  0.00000000E+00
  0.00000000E+00  0.00000000E+00  0.00000000E+00
  0.00000000E+00  0.00000000E+00  0.00000000E+00
  0.00000000E+00  0.00000000E+00  0.00000000E+00
  0.00000000E+00  0.00000000E+00  0.00000000E+00
  0.00000000E+00  0.00000000E+00  0.00000000E+00
  0.00000000E+00  0.00000000E+00  0.00000000E+00
  0.00000000E+00  0.00000000E+00  0.00000000E+00
  0.00000000E+00  0.00000000E+00  0.00000000E+00
  0.00000000E+00  0.00000000E+00  0.00000000E+00
  0.00000000E+00  0.00000000E+00  0.00000000E+00
  0.00000000E+00  0.00000000E+00  0.00000000E+00
  0.00000000E+00  0.00000000E+00  0.00000000E+00
  0.00000000E+00  0.00000000E+00  0.00000000E+00
  0.00000000E+00  0.00000000E+00  0.00000000E+00
  0.00000000E+00  0.00000000E+00  0.00000000E+00
  0.00000000E+00  0.00000000E+00  0.00000000E+00
  0.00000000E+00  0.00000000E+00  0.00000000E+00
  0.00000000E+00  0.00000000E+00  0.00000000E+00
  0.00000000E+00  0.00000000E+00  0.00000000E+00
  0.00000000E+00  0.00000000E+00  0.00000000E+00
  0.00000000E+00  0.00000000E+00  0.00000000E+00
  0.00000000E+00  0.00000000E+00  0.00000000E+00
  0.00000000E+00  0.00000000E+00  0.00000000E+00
  0.00000000E+00  0.00000000E+00  0.00000000E+00
  0.00000000E+00  0.00000000E+00  0.00000000E+00
  0.00000000E+00  0.00000000E+00  0.00000000E+00
  0.00000000E+00  0.00000000E+00  0.00000000E+00
  0.00000000E+00  0.00000000E+00  0.00000000E+00
  0.00000000E+00  0.00000000E+00  0.00000000E+00
  0.00000000E+00  0.00000000E+00  0.00000000E+00
  0.00000000E+00  0.00000000E+00  0.00000000E+00
  0.00000000E+00  0.00000000E+00  0.00000000E+00
  0.00000000E+00  0.00000000E+00  0.00000000E+00
  0.00000000E+00  0.00000000E+00  0.00000000E+00
  0.00000000E+00  0.00000000E+00  0.00000000E+00
  0.00000000E+00  0.00000000E+00  0.00000000E+00
  0.00000000E+00  0.00000000E+00  0.00000000E+00
  0.00000000E+00  0.00000000E+00  0.00000000E+00
  0.00000000E+00  0.00000000E+00  0.00000000E+00
  0.00000000E+00  0.00000000E+00  0.00000000E+00
  0.00000000E+00  0.00000000E+00  0.00000000E+00
  0.00000000E+00  0.00000000E+00  0.00000000E+00
  0.00000000E+00  0.00000000E+00  0.00000000E+00
  0.00000000E+00  0.00000000E+00  0.00000000E+00
  0.00000000E+00  0.00000000E+00  0.00000000E+00
  0.00000000E+00  0.00000000E+00  0.00000000E+00
  0.00000000E+00  0.00000000E+00  0.00000000E+00
  0.00000000E+00  0.00000000E+00  0.00000000E+00
  0.00000000E+00  0.00000000E+00  0.00000000E+00
  0.00000000E+00  0.00000000E+00  0.00000000E+00
  0.00000000E+00  0.00000000E+00  0.00000000E+00
  0.00000000E+00  0.00000000E+00  0.00000000E+00
