V-pyrridine-N1_nh2                      
   1.00000000000000     
    12.4723245402000007    0.0000000000000000    0.0000000000000000
     0.0000000000000000   12.8964460826000007    0.0000000000000000
     0.0000000000000000    0.0000000000000000   19.8713392818999992
   C    N    V    H 
    57     2     1     2
Direct
  0.0516930566313739  0.0478014366171938  0.1559664486832213
  0.1516294662178023  0.1023952852953537  0.1558600211172671
  0.1509064877559029  0.2132554161505343  0.1564232191254856
  0.0512364855740368  0.2688216018947341  0.1569022978845608
  0.2521995417878573  0.0471866100459213  0.1553355893042896
  0.3519605611202060  0.1027767224028002  0.1553416130346874
  0.3511231186105026  0.2146167075670945  0.1559766101309621
  0.2505328072706209  0.2685956487756940  0.1568708630563095
  0.4522016240837921  0.0471338952108885  0.1556603018882314
  0.5516997481195116  0.1048394142395004  0.1566962845848799
  0.5512656300104173  0.2163837747254548  0.1579187048867248
  0.4505217150181416  0.2726670927663299  0.1581101123871476
  0.6515021731608092  0.0478073189242223  0.1565114643833032
  0.7512818455092639  0.1036444767260950  0.1565481696857139
  0.7513434176240652  0.2156275221844750  0.1570723859529496
  0.6515633217444975  0.2734830986075280  0.1578437998517432
  0.8513434450431306  0.0480222800233067  0.1563258598607652
  0.9515743056972091  0.1030114589623583  0.1563350003267402
  0.9516479610282426  0.2140677831205524  0.1568685491848995
  0.8516745977139417  0.2701909217522031  0.1575518221757990
  0.0511580418929272  0.3807509834763252  0.1576329501384362
  0.1497319285338944  0.4360573934487380  0.1582166998863912
  0.1499516865410805  0.5475349086293210  0.1584271100278286
  0.0516395142355267  0.6033317470464806  0.1576578055493026
  0.2485001743736375  0.3795877934852796  0.1580376134324620
  0.3468103601063507  0.4343555585601734  0.1592769621392591
  0.3468242475489213  0.5479115258008981  0.1589230249105825
  0.2488672839206739  0.6034747674581517  0.1583531652666539
  0.7543172997530596  0.4374012324601976  0.1592255450521415
  0.7561045367583543  0.5513832371968841  0.1590453770065398
  0.8534368091479032  0.3815326289941561  0.1587376760642670
  0.9527021434111996  0.4366346759049953  0.1583268202815936
  0.9532256544236611  0.5479340792542406  0.1580920264902617
  0.8548150307661931  0.6047914903998083  0.1581075078290150
  0.0521952118229161  0.7153102695274782  0.1568175274783436
  0.1516979203245493  0.7704411058893877  0.1563145069260051
  0.0519903182186631  0.9368907167912829  0.1559471654918713
  0.2514141760410686  0.7145519963579662  0.1568700178289219
  0.3520385329700197  0.7681320772089912  0.1557217671691462
  0.3525297353848933  0.8798720191432514  0.1551217230337718
  0.2525159380174653  0.9359772133760028  0.1552271840120128
  0.4519135464429915  0.7094777639484334  0.1570464096026498
  0.5531617655872548  0.7655089299539700  0.1573842296376310
  0.5527476038628625  0.8777640986749807  0.1563567835108103
  0.4527721878356434  0.9351723451028924  0.1554754482052914
  0.6548494298889955  0.7105415019427225  0.1580551919901947
  0.7531226730474102  0.7694846723640704  0.1568523540529480
  0.7518699306894482  0.8810907487147018  0.1562840986599799
  0.6517112285884276  0.9359838320245472  0.1563547294651291
  0.8535950240753717  0.7157716607749610  0.1571765849071944
  0.9529866028430382  0.7711754010320192  0.1566636069222716
  0.8516099747231319  0.9367878644408514  0.1562298409979301
  0.1519569651876002  0.8813807022925660  0.1557065597953996
  0.9522040507197358  0.8820584550516944  0.1562529296841944
  0.4462927101994182  0.3828514932376895  0.1620744764711090
  0.4463753203438774  0.5994365134812348  0.1597537133908149
  0.6552828664145542  0.3843196874447898  0.1600927873123812
  0.6601975877211042  0.6032239260841844  0.1605114939240307
  0.5445325135363570  0.4891801753147047  0.2894446476084391
  0.5527950274477941  0.4927693576907530  0.1966780602318519
  0.5961529287606329  0.4528864958743790  0.3216165571925871
  0.4801813110235270  0.5186296796199563  0.3149233676148597
 
  0.00000000E+00  0.00000000E+00  0.00000000E+00
  0.00000000E+00  0.00000000E+00  0.00000000E+00
  0.00000000E+00  0.00000000E+00  0.00000000E+00
  0.00000000E+00  0.00000000E+00  0.00000000E+00
  0.00000000E+00  0.00000000E+00  0.00000000E+00
  0.00000000E+00  0.00000000E+00  0.00000000E+00
  0.00000000E+00  0.00000000E+00  0.00000000E+00
  0.00000000E+00  0.00000000E+00  0.00000000E+00
  0.00000000E+00  0.00000000E+00  0.00000000E+00
  0.00000000E+00  0.00000000E+00  0.00000000E+00
  0.00000000E+00  0.00000000E+00  0.00000000E+00
  0.00000000E+00  0.00000000E+00  0.00000000E+00
  0.00000000E+00  0.00000000E+00  0.00000000E+00
  0.00000000E+00  0.00000000E+00  0.00000000E+00
  0.00000000E+00  0.00000000E+00  0.00000000E+00
  0.00000000E+00  0.00000000E+00  0.00000000E+00
  0.00000000E+00  0.00000000E+00  0.00000000E+00
  0.00000000E+00  0.00000000E+00  0.00000000E+00
  0.00000000E+00  0.00000000E+00  0.00000000E+00
  0.00000000E+00  0.00000000E+00  0.00000000E+00
  0.00000000E+00  0.00000000E+00  0.00000000E+00
  0.00000000E+00  0.00000000E+00  0.00000000E+00
  0.00000000E+00  0.00000000E+00  0.00000000E+00
  0.00000000E+00  0.00000000E+00  0.00000000E+00
  0.00000000E+00  0.00000000E+00  0.00000000E+00
  0.00000000E+00  0.00000000E+00  0.00000000E+00
  0.00000000E+00  0.00000000E+00  0.00000000E+00
  0.00000000E+00  0.00000000E+00  0.00000000E+00
  0.00000000E+00  0.00000000E+00  0.00000000E+00
  0.00000000E+00  0.00000000E+00  0.00000000E+00
  0.00000000E+00  0.00000000E+00  0.00000000E+00
  0.00000000E+00  0.00000000E+00  0.00000000E+00
  0.00000000E+00  0.00000000E+00  0.00000000E+00
  0.00000000E+00  0.00000000E+00  0.00000000E+00
  0.00000000E+00  0.00000000E+00  0.00000000E+00
  0.00000000E+00  0.00000000E+00  0.00000000E+00
  0.00000000E+00  0.00000000E+00  0.00000000E+00
  0.00000000E+00  0.00000000E+00  0.00000000E+00
  0.00000000E+00  0.00000000E+00  0.00000000E+00
  0.00000000E+00  0.00000000E+00  0.00000000E+00
  0.00000000E+00  0.00000000E+00  0.00000000E+00
  0.00000000E+00  0.00000000E+00  0.00000000E+00
  0.00000000E+00  0.00000000E+00  0.00000000E+00
  0.00000000E+00  0.00000000E+00  0.00000000E+00
  0.00000000E+00  0.00000000E+00  0.00000000E+00
  0.00000000E+00  0.00000000E+00  0.00000000E+00
  0.00000000E+00  0.00000000E+00  0.00000000E+00
  0.00000000E+00  0.00000000E+00  0.00000000E+00
  0.00000000E+00  0.00000000E+00  0.00000000E+00
  0.00000000E+00  0.00000000E+00  0.00000000E+00
  0.00000000E+00  0.00000000E+00  0.00000000E+00
  0.00000000E+00  0.00000000E+00  0.00000000E+00
  0.00000000E+00  0.00000000E+00  0.00000000E+00
  0.00000000E+00  0.00000000E+00  0.00000000E+00
  0.00000000E+00  0.00000000E+00  0.00000000E+00
  0.00000000E+00  0.00000000E+00  0.00000000E+00
  0.00000000E+00  0.00000000E+00  0.00000000E+00
  0.00000000E+00  0.00000000E+00  0.00000000E+00
  0.00000000E+00  0.00000000E+00  0.00000000E+00
  0.00000000E+00  0.00000000E+00  0.00000000E+00
  0.00000000E+00  0.00000000E+00  0.00000000E+00
  0.00000000E+00  0.00000000E+00  0.00000000E+00
