Ni-COF-366_nh2                          
   1.00000000000000     
    26.3054835247000014    0.0000000000000000    0.0000000000000000
     0.0000000000000000   26.3156247372000003    0.0000000000000000
     0.0000000000000000    0.0000000000000000   25.0000000000000000
   C    N    H    Ni
    60     9    34     1
Direct
  0.2518960344114396  0.1968216368441086  0.2010497205061732
  0.2040930311431835  0.1720120363901518  0.1894421401973164
  0.1674486847777025  0.2087363020564630  0.1894436801827116
  0.1924011345141796  0.2564334917419890  0.2010871697082084
  0.3463457386711824  0.1969084288507527  0.2070680445207783
  0.3946199024768450  0.1715542412755739  0.2139482416098592
  0.4060095421607197  0.2565056495519883  0.2070774437143920
  0.4313428791221698  0.2082253016198633  0.2139781439461499
  0.2522943068417235  0.4103952754034829  0.2076848517043121
  0.1926321416544085  0.3508221489501111  0.2075850672793183
  0.2040687602379864  0.4357125641201525  0.2150861354983896
  0.1673193393404900  0.3990441593347949  0.2150192131192768
  0.4061928938673429  0.3509223994293811  0.2009595165529035
  0.4310737541120577  0.3986448460733825  0.1891748767572892
  0.3466848260310797  0.4105019673666174  0.2011081923670469
  0.3944141890699579  0.4353481236090007  0.1892826606856485
  0.2994729360808621  0.4360307539237733  0.2039549260702439
  0.1669617626659523  0.3036938697916675  0.2037997982955428
  0.2991470570224862  0.1712814273041136  0.2036046905751865
  0.2995581042547373  0.1143347799796223  0.1999259609183943
  0.3286586430860883  0.0892439920407134  0.1605154444248371
  0.2707383500961191  0.0829470682350156  0.2342363994875054
  0.3286682551205223  0.0365507453235651  0.1553718996782583
  0.2708924984495347  0.0299070788595740  0.2300427084965554
  0.3001881098799228  0.0056332871670885  0.1903540681896285
  0.4316662394688351  0.3036629898509803  0.2035803259304479
  0.2990380954772298  0.4930027154889395  0.2001449764789816
  0.4886157574193797  0.3032551347420853  0.2000038434977419
  0.1100012626913995  0.3042430081517818  0.1998730825924881
  0.2699559702619628  0.5178586849234078  0.1605580867352435
  0.5138313512467487  0.2738645196980536  0.1609259941551053
  0.0852356455548557  0.3334290460006195  0.1603226317680569
  0.3276571605380618  0.5245911538781521  0.2344594441929535
  0.5198817688276194  0.3323690280786725  0.2341637654232338
  0.0783600994620967  0.2755508819327242  0.2340422124066611
  0.2699865751637434  0.5705236943806469  0.1550527367806711
  0.5665532133776445  0.2738874759238853  0.1559344203704266
  0.0325589463905150  0.3334676541298622  0.1547683223979924
  0.3274410786224124  0.5776292371643154  0.2299610644891193
  0.5729399213747829  0.3322497264803687  0.2301032107161273
  0.0253148846655811  0.2758316644428837  0.2294626956203468
  0.2983646895936017  0.6016418759013945  0.1899117350857780
  0.5973506033083448  0.3026989888625662  0.1907304386415792
  0.0013638442985532  0.3050217743844921  0.1894793230839623
  0.6924639943478356  0.3042569328636139  0.1995848702783668
  0.9064586086440022  0.3033977814436339  0.1981290127998389
  0.2998546628635131  0.6965840021001969  0.1984933197023363
  0.2989042099031388  0.9105605749628274  0.1991456332454267
  0.7439927797998024  0.3044380642161113  0.2051756960535723
  0.7731059812045988  0.2573904426012810  0.2076516789990568
  0.7739768705279910  0.3508371791273148  0.2077190315133932
  0.8249726897732740  0.2567727517225473  0.2073349390521775
  0.8258396436968524  0.3502064676013950  0.2069845569632294
  0.8549664894578827  0.3031692323360774  0.2041959649227464
  0.3000387987919559  0.7480744693011907  0.2043238960508310
  0.3464485532733410  0.7780727506119203  0.2071117937150320
  0.2530090938368703  0.7772114795512306  0.2071351436639923
  0.3458398380817804  0.8299301314334611  0.2071609911008531
  0.2523805216590096  0.8290635336877307  0.2076095843356395
  0.2987812059034777  0.8590628028829317  0.2048057799862346
  0.2440882927571118  0.2484952735978227  0.2071167173013629
  0.2446076688847325  0.3584477198072041  0.2041990038971652
  0.3540166720356126  0.2488758389142856  0.2038776170412251
  0.3545317483659813  0.3588217755945553  0.2071173298676341
  0.6496730441223310  0.3032583090219904  0.1807307173470496
  0.9490650468553231  0.3044383044543437  0.1786705031366205
  0.2988883146595263  0.6539116090186468  0.1792663592229842
  0.2997330009128895  0.9533420382130184  0.1802494384062053
  0.2992863609346479  0.3037873187498557  0.2934566263670264
  0.1994915507623950  0.1318404498764542  0.1807305054210087
  0.1272593439803873  0.2042987671810784  0.1806658577228341
  0.3996941805146767  0.1308573482236478  0.2188558004092797
  0.4720196469550295  0.2030293935369204  0.2190063467218687
  0.1990570085058208  0.4763514967100344  0.2204352050162287
  0.1266476315071538  0.4040834076639642  0.2203041386148861
  0.4712276078037948  0.4031623704943108  0.1802416812233356
  0.3988875225890628  0.4755177229307140  0.1804707032887740
  0.3508040316527919  0.1118232518644374  0.1322645244741640
  0.2478514767881762  0.1005898056675504  0.2655818787893471
  0.3503733604152228  0.0184850518387744  0.1234210730410448
  0.2482081411805091  0.0070915436304119  0.2575911619042624
  0.2478303273753007  0.4951038848952687  0.1324379813767089
  0.4913304313215305  0.2514982986249198  0.1328081642604665
  0.1080850424917246  0.3556075952566182  0.1323259464471680
  0.3504324383388738  0.5071087392521149  0.2659888653284146
  0.5021181283419948  0.3554876121700080  0.2652493350795480
  0.0957765231245046  0.2526701038884994  0.2655307626770374
  0.2483774758383067  0.5884271683518101  0.1229178028928199
  0.5847492116793251  0.2519670929501285  0.1242336880633532
  0.0147144962435859  0.3552118206387321  0.1226943689249066
  0.3500050972285682  0.6005931434563503  0.2574985371676760
  0.5956489299431363  0.3552555684789810  0.2574730125135364
  0.0023035200433673  0.2531457287230514  0.2568506800374507
  0.7525221700030129  0.2214316507318259  0.2091144161183598
  0.7542920098146170  0.3872931058243791  0.2091484571895301
  0.8446254693116246  0.2202980049912234  0.2083786615970750
  0.8464120041684652  0.3861864241593553  0.2074939917164618
  0.3829296580032136  0.7584194252885553  0.2080709902618267
  0.2170225323600339  0.7566556022466546  0.2079012980702576
  0.3818346226226135  0.8504939677440483  0.2081663390191854
  0.2159118001888553  0.8487470437623651  0.2090025296981733
  0.3203530042290746  0.3280316766148335  0.3164767901681744
  0.2771133298881254  0.2806919214571365  0.3166390157626922
  0.2993409697324783  0.3036135290155650  0.2188259383232893
 
  0.00000000E+00  0.00000000E+00  0.00000000E+00
  0.00000000E+00  0.00000000E+00  0.00000000E+00
  0.00000000E+00  0.00000000E+00  0.00000000E+00
  0.00000000E+00  0.00000000E+00  0.00000000E+00
  0.00000000E+00  0.00000000E+00  0.00000000E+00
  0.00000000E+00  0.00000000E+00  0.00000000E+00
  0.00000000E+00  0.00000000E+00  0.00000000E+00
  0.00000000E+00  0.00000000E+00  0.00000000E+00
  0.00000000E+00  0.00000000E+00  0.00000000E+00
  0.00000000E+00  0.00000000E+00  0.00000000E+00
  0.00000000E+00  0.00000000E+00  0.00000000E+00
  0.00000000E+00  0.00000000E+00  0.00000000E+00
  0.00000000E+00  0.00000000E+00  0.00000000E+00
  0.00000000E+00  0.00000000E+00  0.00000000E+00
  0.00000000E+00  0.00000000E+00  0.00000000E+00
  0.00000000E+00  0.00000000E+00  0.00000000E+00
  0.00000000E+00  0.00000000E+00  0.00000000E+00
  0.00000000E+00  0.00000000E+00  0.00000000E+00
  0.00000000E+00  0.00000000E+00  0.00000000E+00
  0.00000000E+00  0.00000000E+00  0.00000000E+00
  0.00000000E+00  0.00000000E+00  0.00000000E+00
  0.00000000E+00  0.00000000E+00  0.00000000E+00
  0.00000000E+00  0.00000000E+00  0.00000000E+00
  0.00000000E+00  0.00000000E+00  0.00000000E+00
  0.00000000E+00  0.00000000E+00  0.00000000E+00
  0.00000000E+00  0.00000000E+00  0.00000000E+00
  0.00000000E+00  0.00000000E+00  0.00000000E+00
  0.00000000E+00  0.00000000E+00  0.00000000E+00
  0.00000000E+00  0.00000000E+00  0.00000000E+00
  0.00000000E+00  0.00000000E+00  0.00000000E+00
  0.00000000E+00  0.00000000E+00  0.00000000E+00
  0.00000000E+00  0.00000000E+00  0.00000000E+00
  0.00000000E+00  0.00000000E+00  0.00000000E+00
  0.00000000E+00  0.00000000E+00  0.00000000E+00
  0.00000000E+00  0.00000000E+00  0.00000000E+00
  0.00000000E+00  0.00000000E+00  0.00000000E+00
  0.00000000E+00  0.00000000E+00  0.00000000E+00
  0.00000000E+00  0.00000000E+00  0.00000000E+00
  0.00000000E+00  0.00000000E+00  0.00000000E+00
  0.00000000E+00  0.00000000E+00  0.00000000E+00
  0.00000000E+00  0.00000000E+00  0.00000000E+00
  0.00000000E+00  0.00000000E+00  0.00000000E+00
  0.00000000E+00  0.00000000E+00  0.00000000E+00
  0.00000000E+00  0.00000000E+00  0.00000000E+00
  0.00000000E+00  0.00000000E+00  0.00000000E+00
  0.00000000E+00  0.00000000E+00  0.00000000E+00
  0.00000000E+00  0.00000000E+00  0.00000000E+00
  0.00000000E+00  0.00000000E+00  0.00000000E+00
  0.00000000E+00  0.00000000E+00  0.00000000E+00
  0.00000000E+00  0.00000000E+00  0.00000000E+00
  0.00000000E+00  0.00000000E+00  0.00000000E+00
  0.00000000E+00  0.00000000E+00  0.00000000E+00
  0.00000000E+00  0.00000000E+00  0.00000000E+00
  0.00000000E+00  0.00000000E+00  0.00000000E+00
  0.00000000E+00  0.00000000E+00  0.00000000E+00
  0.00000000E+00  0.00000000E+00  0.00000000E+00
  0.00000000E+00  0.00000000E+00  0.00000000E+00
  0.00000000E+00  0.00000000E+00  0.00000000E+00
  0.00000000E+00  0.00000000E+00  0.00000000E+00
  0.00000000E+00  0.00000000E+00  0.00000000E+00
  0.00000000E+00  0.00000000E+00  0.00000000E+00
  0.00000000E+00  0.00000000E+00  0.00000000E+00
  0.00000000E+00  0.00000000E+00  0.00000000E+00
  0.00000000E+00  0.00000000E+00  0.00000000E+00
  0.00000000E+00  0.00000000E+00  0.00000000E+00
  0.00000000E+00  0.00000000E+00  0.00000000E+00
  0.00000000E+00  0.00000000E+00  0.00000000E+00
  0.00000000E+00  0.00000000E+00  0.00000000E+00
  0.00000000E+00  0.00000000E+00  0.00000000E+00
  0.00000000E+00  0.00000000E+00  0.00000000E+00
  0.00000000E+00  0.00000000E+00  0.00000000E+00
  0.00000000E+00  0.00000000E+00  0.00000000E+00
  0.00000000E+00  0.00000000E+00  0.00000000E+00
  0.00000000E+00  0.00000000E+00  0.00000000E+00
  0.00000000E+00  0.00000000E+00  0.00000000E+00
  0.00000000E+00  0.00000000E+00  0.00000000E+00
  0.00000000E+00  0.00000000E+00  0.00000000E+00
  0.00000000E+00  0.00000000E+00  0.00000000E+00
  0.00000000E+00  0.00000000E+00  0.00000000E+00
  0.00000000E+00  0.00000000E+00  0.00000000E+00
  0.00000000E+00  0.00000000E+00  0.00000000E+00
  0.00000000E+00  0.00000000E+00  0.00000000E+00
  0.00000000E+00  0.00000000E+00  0.00000000E+00
  0.00000000E+00  0.00000000E+00  0.00000000E+00
  0.00000000E+00  0.00000000E+00  0.00000000E+00
  0.00000000E+00  0.00000000E+00  0.00000000E+00
  0.00000000E+00  0.00000000E+00  0.00000000E+00
  0.00000000E+00  0.00000000E+00  0.00000000E+00
  0.00000000E+00  0.00000000E+00  0.00000000E+00
  0.00000000E+00  0.00000000E+00  0.00000000E+00
  0.00000000E+00  0.00000000E+00  0.00000000E+00
  0.00000000E+00  0.00000000E+00  0.00000000E+00
  0.00000000E+00  0.00000000E+00  0.00000000E+00
  0.00000000E+00  0.00000000E+00  0.00000000E+00
  0.00000000E+00  0.00000000E+00  0.00000000E+00
  0.00000000E+00  0.00000000E+00  0.00000000E+00
  0.00000000E+00  0.00000000E+00  0.00000000E+00
  0.00000000E+00  0.00000000E+00  0.00000000E+00
  0.00000000E+00  0.00000000E+00  0.00000000E+00
  0.00000000E+00  0.00000000E+00  0.00000000E+00
  0.00000000E+00  0.00000000E+00  0.00000000E+00
  0.00000000E+00  0.00000000E+00  0.00000000E+00
  0.00000000E+00  0.00000000E+00  0.00000000E+00
  0.00000000E+00  0.00000000E+00  0.00000000E+00
