Mn-pyrridine-N1_nh2                     
   1.00000000000000     
    12.5351080068999998    0.0000000000000000    0.0000000000000000
     0.0000000000000000   12.8339347564999997    0.0000000000000000
     0.0000000000000000    0.0000000000000000   19.8713392818999992
   C    N    Mn   H 
    57     2     1     2
Direct
  0.0517156791069891  0.0483830730303730  0.1571633618056980
  0.1517135513556216  0.1027105918312266  0.1572303416247716
  0.1507853117865191  0.2137905853695587  0.1569148062388173
  0.0511592712979129  0.2693457698211204  0.1562362656851259
  0.2523377350362935  0.0476851173976703  0.1573067546098175
  0.3521095233377710  0.1030767779133440  0.1577896175307814
  0.3510551073622850  0.2151095019257587  0.1582646494044371
  0.2502925032116517  0.2688650159451810  0.1573195897374991
  0.4524203746973430  0.0476853443179538  0.1586893847724936
  0.5517665891294475  0.1054199162679329  0.1596309649850838
  0.5512521330667062  0.2175981273092570  0.1607623879095994
  0.4502883492049325  0.2732013464939860  0.1611774896803499
  0.6515353680790125  0.0485825529441304  0.1591555017994940
  0.7512034203865485  0.1045225987984451  0.1582757151234921
  0.7513210045255702  0.2168205372073911  0.1578861100337098
  0.6514505709843768  0.2746544921526792  0.1594356999285721
  0.8512811023358549  0.0489865753902506  0.1577126460493165
  0.9515716164316158  0.1036175400945685  0.1572241396889088
  0.9515436572839601  0.2148822070045627  0.1567268947741556
  0.8517333880602703  0.2708377361695807  0.1568395787952984
  0.0510075921693445  0.3813253670068031  0.1553842667613911
  0.1494728343382914  0.4365217045001754  0.1551359864635934
  0.1498776364406423  0.5481834769269602  0.1545765043239196
  0.0517853150106931  0.6040660477092529  0.1544938063178822
  0.2480057269192900  0.3800596951414913  0.1563023297328557
  0.3457016554354310  0.4350846186894156  0.1577859087585560
  0.3460752825777186  0.5479564719085501  0.1555920846081386
  0.2487344259697882  0.6038813796047703  0.1546827029616381
  0.7549315505890795  0.4385501490977169  0.1579144846585842
  0.7569910627352799  0.5520054672148896  0.1597623616306628
  0.8534015036708924  0.3823949138538361  0.1563713936750675
  0.9526923519465491  0.4372935941190271  0.1554350894565252
  0.9533951545863090  0.5487757766262540  0.1550089602605744
  0.8553353933644247  0.6055099927133346  0.1566666580130364
  0.0524715350316287  0.7160651704139710  0.1550546491937485
  0.1520793078905523  0.7708641238968168  0.1552466453577435
  0.0520835812853093  0.9373207511960722  0.1569368361184448
  0.2516298785363355  0.7150721491736728  0.1550579617454211
  0.3525411164042298  0.7680323887393602  0.1562315798060035
  0.3528891998815664  0.8801159115502090  0.1570414304678805
  0.2527671257654687  0.9362747056391133  0.1568674484034067
  0.4525269610787896  0.7090476943560059  0.1579641073305715
  0.5535859265864822  0.7650795020143683  0.1606876413765661
  0.5529922883988868  0.8779034249927286  0.1595890749625144
  0.4530866164329650  0.9352705033410333  0.1583834210321344
  0.6557515842057564  0.7107795732782288  0.1622612977290243
  0.7536655760107581  0.7699296643124093  0.1592024066297924
  0.7521582389853311  0.8817662169553160  0.1586444507747213
  0.6518917584143193  0.9362534768782220  0.1594090506537651
  0.8540871033081413  0.7165562991854829  0.1574473693576362
  0.9533393911858185  0.7717721909693686  0.1562950638757289
  0.8517438784507277  0.9375086268482066  0.1577012362594154
  0.1521823621610278  0.8819614751045588  0.1563783578227661
  0.9522890502408018  0.8828431791347126  0.1569541164735758
  0.4449931078603809  0.3839481711875052  0.1638728241631653
  0.4457821793622722  0.5983262761467472  0.1577797077575559
  0.6559988701381448  0.3860169534608158  0.1601487803436332
  0.6618536841475319  0.6033332074243748  0.1656133892045569
  0.5541729182902216  0.4834877791623224  0.2823299779573153
  0.5503770140482146  0.4913074213776172  0.1906279330820197
  0.6014451855322736  0.5271282666095114  0.3133643108880967
  0.5198902800431755  0.4238696041168250  0.3086658252615631
 
  0.00000000E+00  0.00000000E+00  0.00000000E+00
  0.00000000E+00  0.00000000E+00  0.00000000E+00
  0.00000000E+00  0.00000000E+00  0.00000000E+00
  0.00000000E+00  0.00000000E+00  0.00000000E+00
  0.00000000E+00  0.00000000E+00  0.00000000E+00
  0.00000000E+00  0.00000000E+00  0.00000000E+00
  0.00000000E+00  0.00000000E+00  0.00000000E+00
  0.00000000E+00  0.00000000E+00  0.00000000E+00
  0.00000000E+00  0.00000000E+00  0.00000000E+00
  0.00000000E+00  0.00000000E+00  0.00000000E+00
  0.00000000E+00  0.00000000E+00  0.00000000E+00
  0.00000000E+00  0.00000000E+00  0.00000000E+00
  0.00000000E+00  0.00000000E+00  0.00000000E+00
  0.00000000E+00  0.00000000E+00  0.00000000E+00
  0.00000000E+00  0.00000000E+00  0.00000000E+00
  0.00000000E+00  0.00000000E+00  0.00000000E+00
  0.00000000E+00  0.00000000E+00  0.00000000E+00
  0.00000000E+00  0.00000000E+00  0.00000000E+00
  0.00000000E+00  0.00000000E+00  0.00000000E+00
  0.00000000E+00  0.00000000E+00  0.00000000E+00
  0.00000000E+00  0.00000000E+00  0.00000000E+00
  0.00000000E+00  0.00000000E+00  0.00000000E+00
  0.00000000E+00  0.00000000E+00  0.00000000E+00
  0.00000000E+00  0.00000000E+00  0.00000000E+00
  0.00000000E+00  0.00000000E+00  0.00000000E+00
  0.00000000E+00  0.00000000E+00  0.00000000E+00
  0.00000000E+00  0.00000000E+00  0.00000000E+00
  0.00000000E+00  0.00000000E+00  0.00000000E+00
  0.00000000E+00  0.00000000E+00  0.00000000E+00
  0.00000000E+00  0.00000000E+00  0.00000000E+00
  0.00000000E+00  0.00000000E+00  0.00000000E+00
  0.00000000E+00  0.00000000E+00  0.00000000E+00
  0.00000000E+00  0.00000000E+00  0.00000000E+00
  0.00000000E+00  0.00000000E+00  0.00000000E+00
  0.00000000E+00  0.00000000E+00  0.00000000E+00
  0.00000000E+00  0.00000000E+00  0.00000000E+00
  0.00000000E+00  0.00000000E+00  0.00000000E+00
  0.00000000E+00  0.00000000E+00  0.00000000E+00
  0.00000000E+00  0.00000000E+00  0.00000000E+00
  0.00000000E+00  0.00000000E+00  0.00000000E+00
  0.00000000E+00  0.00000000E+00  0.00000000E+00
  0.00000000E+00  0.00000000E+00  0.00000000E+00
  0.00000000E+00  0.00000000E+00  0.00000000E+00
  0.00000000E+00  0.00000000E+00  0.00000000E+00
  0.00000000E+00  0.00000000E+00  0.00000000E+00
  0.00000000E+00  0.00000000E+00  0.00000000E+00
  0.00000000E+00  0.00000000E+00  0.00000000E+00
  0.00000000E+00  0.00000000E+00  0.00000000E+00
  0.00000000E+00  0.00000000E+00  0.00000000E+00
  0.00000000E+00  0.00000000E+00  0.00000000E+00
  0.00000000E+00  0.00000000E+00  0.00000000E+00
  0.00000000E+00  0.00000000E+00  0.00000000E+00
  0.00000000E+00  0.00000000E+00  0.00000000E+00
  0.00000000E+00  0.00000000E+00  0.00000000E+00
  0.00000000E+00  0.00000000E+00  0.00000000E+00
  0.00000000E+00  0.00000000E+00  0.00000000E+00
  0.00000000E+00  0.00000000E+00  0.00000000E+00
  0.00000000E+00  0.00000000E+00  0.00000000E+00
  0.00000000E+00  0.00000000E+00  0.00000000E+00
  0.00000000E+00  0.00000000E+00  0.00000000E+00
  0.00000000E+00  0.00000000E+00  0.00000000E+00
  0.00000000E+00  0.00000000E+00  0.00000000E+00
