Cu-N3-pyrrole_nh2                       
   1.00000000000000     
     8.4330998060999995    0.0189704286000000   -0.0000008760000000
     0.0189225717000000    8.4330868862999999   -0.0000614337000000
     0.0000365490000000   -0.0001784801000000   20.6280425524999984
   C    N    Cu   H 
    21     4     1     2
Direct
  0.4850285459654076  0.0945721546712857  0.1576405891806060
  0.3386516230140675  0.1791532854404448  0.1543461246782714
  0.6310446881353881  0.1747311755219726  0.1620173636165129
  0.7821438080658430  0.9307143009404204  0.1521240753878057
  0.7792907597503957  0.0961982824076297  0.1555601104592536
  0.9043438045583301  0.2211809436264954  0.1558116987885372
  0.8257243549611530  0.3694187176091771  0.1626965809372997
  0.1894193103443630  0.0972432548975933  0.1515644285613864
  0.0697805277799521  0.2182722900071075  0.1522052652625426
  0.1576006049697484  0.3684263846946562  0.1535863170292708
  0.0757304537218247  0.5154180048890478  0.1543776857960702
  0.1545776057170656  0.6637147154293712  0.1526116992374669
  0.3370744554821247  0.8460571131840049  0.1522314675943471
  0.1886770020652296  0.9309321009565593  0.1509950749882873
  0.0698048865777090  0.8121417395368539  0.1511462250827229
  0.6321315184000174  0.8426440352546005  0.1532790711140914
  0.8215812236246013  0.6619632720879473  0.1543949731849163
  0.9034315717195163  0.8113882409111711  0.1516531730563808
  0.4852320599762726  0.9247584831551585  0.1539512359788998
  0.9059098456480937  0.5155091333823802  0.1580214003035144
  0.6580615974492424  0.3421464472458694  0.1802350383059672
  0.3187195480413148  0.3429839243327147  0.1555116274781666
  0.3151596677227539  0.6855306162731802  0.1549584633145886
  0.6577120236837292  0.6816322629014231  0.1552988067100505
  0.6099372788647327  0.3884046991737016  0.2429640395586173
  0.4845875229908376  0.5158227801679173  0.1523455275296152
  0.6875884068586462  0.4505818274309511  0.2706360833969314
  0.5330953550139071  0.3160395099624122  0.2665030987381993
 
  0.00000000E+00  0.00000000E+00  0.00000000E+00
  0.00000000E+00  0.00000000E+00  0.00000000E+00
  0.00000000E+00  0.00000000E+00  0.00000000E+00
  0.00000000E+00  0.00000000E+00  0.00000000E+00
  0.00000000E+00  0.00000000E+00  0.00000000E+00
  0.00000000E+00  0.00000000E+00  0.00000000E+00
  0.00000000E+00  0.00000000E+00  0.00000000E+00
  0.00000000E+00  0.00000000E+00  0.00000000E+00
  0.00000000E+00  0.00000000E+00  0.00000000E+00
  0.00000000E+00  0.00000000E+00  0.00000000E+00
  0.00000000E+00  0.00000000E+00  0.00000000E+00
  0.00000000E+00  0.00000000E+00  0.00000000E+00
  0.00000000E+00  0.00000000E+00  0.00000000E+00
  0.00000000E+00  0.00000000E+00  0.00000000E+00
  0.00000000E+00  0.00000000E+00  0.00000000E+00
  0.00000000E+00  0.00000000E+00  0.00000000E+00
  0.00000000E+00  0.00000000E+00  0.00000000E+00
  0.00000000E+00  0.00000000E+00  0.00000000E+00
  0.00000000E+00  0.00000000E+00  0.00000000E+00
  0.00000000E+00  0.00000000E+00  0.00000000E+00
  0.00000000E+00  0.00000000E+00  0.00000000E+00
  0.00000000E+00  0.00000000E+00  0.00000000E+00
  0.00000000E+00  0.00000000E+00  0.00000000E+00
  0.00000000E+00  0.00000000E+00  0.00000000E+00
  0.00000000E+00  0.00000000E+00  0.00000000E+00
  0.00000000E+00  0.00000000E+00  0.00000000E+00
  0.00000000E+00  0.00000000E+00  0.00000000E+00
  0.00000000E+00  0.00000000E+00  0.00000000E+00
