Co-N2-pyrrole_nh2                       
   1.00000000000000     
     8.4171347741999991    0.0000000000000000    0.0000000000000000
     0.0000000000000000    8.4271848725999998    0.0000000000000000
     0.0000000000000000    0.0000000000000000   19.8713392818999992
   C    N    Co   H 
    22     3     1     2
Direct
  0.4965796603911025  0.0846774730730863  0.1554212933773015
  0.3505726170762940  0.1659036468520683  0.1547833013285737
  0.6412020130650676  0.1690004461547481  0.1544145519733530
  0.7925911392923344  0.9185131181285886  0.1528989031229323
  0.7925922877739481  0.0814297682497443  0.1528973611152158
  0.9177013072950791  0.2058191784909795  0.1537132649681613
  0.8366572036421595  0.3557671083372870  0.1553312638663991
  0.2016092511107398  0.0822073692879057  0.1534654086580353
  0.0818063896343031  0.2033709296888178  0.1531559230587504
  0.1701578828526994  0.3528485793688436  0.1538767326148111
  0.0907753460502534  0.4999738451109119  0.1546638040817504
  0.1701555478433294  0.6470966230087216  0.1538780580825444
  0.3505733874489594  0.8340411083051539  0.1547850702881968
  0.2016074795250690  0.9177362074711826  0.1534655660058090
  0.0818026397688413  0.7965742298974033  0.1531560044235492
  0.6412014787112648  0.8309474219199933  0.1544169169198984
  0.8366538119928685  0.6441781503938296  0.1553324276348139
  0.9176969454647909  0.7941234051584184  0.1537138484782091
  0.4965769348836327  0.9152644954013432  0.1554223842531703
  0.9216342904889928  0.4999683400015721  0.1555746180773786
  0.6661163715872036  0.3365217001110187  0.1551175461952799
  0.6661125110144760  0.6634251070522220  0.1551189444081685
  0.3303568169416209  0.3283968697258577  0.1547008203408269
  0.3303556123633785  0.6715443130518649  0.1547046772496902
  0.5114688911460334  0.4999624038222955  0.2530166188303328
  0.5058682679188474  0.4999784446463768  0.1649044533803815
  0.6117630160447143  0.4999614908274334  0.2815795425848118
  0.4067189059891626  0.4999899208716603  0.2788802552056986
 
  0.00000000E+00  0.00000000E+00  0.00000000E+00
  0.00000000E+00  0.00000000E+00  0.00000000E+00
  0.00000000E+00  0.00000000E+00  0.00000000E+00
  0.00000000E+00  0.00000000E+00  0.00000000E+00
  0.00000000E+00  0.00000000E+00  0.00000000E+00
  0.00000000E+00  0.00000000E+00  0.00000000E+00
  0.00000000E+00  0.00000000E+00  0.00000000E+00
  0.00000000E+00  0.00000000E+00  0.00000000E+00
  0.00000000E+00  0.00000000E+00  0.00000000E+00
  0.00000000E+00  0.00000000E+00  0.00000000E+00
  0.00000000E+00  0.00000000E+00  0.00000000E+00
  0.00000000E+00  0.00000000E+00  0.00000000E+00
  0.00000000E+00  0.00000000E+00  0.00000000E+00
  0.00000000E+00  0.00000000E+00  0.00000000E+00
  0.00000000E+00  0.00000000E+00  0.00000000E+00
  0.00000000E+00  0.00000000E+00  0.00000000E+00
  0.00000000E+00  0.00000000E+00  0.00000000E+00
  0.00000000E+00  0.00000000E+00  0.00000000E+00
  0.00000000E+00  0.00000000E+00  0.00000000E+00
  0.00000000E+00  0.00000000E+00  0.00000000E+00
  0.00000000E+00  0.00000000E+00  0.00000000E+00
  0.00000000E+00  0.00000000E+00  0.00000000E+00
  0.00000000E+00  0.00000000E+00  0.00000000E+00
  0.00000000E+00  0.00000000E+00  0.00000000E+00
  0.00000000E+00  0.00000000E+00  0.00000000E+00
  0.00000000E+00  0.00000000E+00  0.00000000E+00
  0.00000000E+00  0.00000000E+00  0.00000000E+00
  0.00000000E+00  0.00000000E+00  0.00000000E+00
