V-pyrridine-N2-diagonal_nh2             
   1.00000000000000     
    12.4784735457000000    0.0000000000000000    0.0000000000000000
     0.0000000000000000   12.7901003218000007    0.0000000000000000
     0.0000000000000000    0.0000000000000000   19.8713392818999992
   C    N    V    H 
    56     3     1     2
Direct
  0.0521455626502883  0.0473091700577786  0.1558551476269676
  0.1521900730081919  0.1018111589568024  0.1558343963905772
  0.1512631761592232  0.2129206916345071  0.1560714827121169
  0.0515679723344134  0.2686934672030997  0.1565581143905842
  0.2528369525593122  0.0469734110575282  0.1554161076645207
  0.3526423849337746  0.1026710885778135  0.1548273426952580
  0.3514233651029550  0.2145757280760662  0.1552258609666913
  0.2504667324887596  0.2679042277348065  0.1559734571430159
  0.4528469184056179  0.0472865603827670  0.1545451484059964
  0.5513561751351663  0.1058890828528497  0.1545143245330453
  0.5506737007107695  0.2187091623230729  0.1554475155525067
  0.4495117038353170  0.2737945577293120  0.1564824887324058
  0.6511334532808237  0.0487368050468610  0.1536230144983029
  0.7511365868180321  0.1044614892585421  0.1536784078663540
  0.7513306570856154  0.2163655678321660  0.1540389409264251
  0.6514026813743353  0.2753489447301898  0.1544568888375909
  0.8512990049811245  0.0482947205466496  0.1543763321482011
  0.9516720953812128  0.1027876412163292  0.1553990853040361
  0.9517498304631339  0.2140283557407294  0.1559929937727845
  0.8520089190755639  0.2701963207355385  0.1556554656381541
  0.0520720555008197  0.3802915137371576  0.1571958630899191
  0.1505711877898348  0.4357305054708348  0.1569561977680919
  0.1510394633985209  0.5471170500203785  0.1570015577950437
  0.0526024459113096  0.6033640394247112  0.1570120619692580
  0.2491207814762289  0.3790450027196194  0.1565905875090047
  0.3472631233864860  0.4328464247930870  0.1570909453610799
  0.3486162147951370  0.5455126103864907  0.1562564705810303
  0.2502814089155999  0.6019102734991528  0.1564645680642691
  0.7560503457030436  0.4382538519717092  0.1560907181688384
  0.7573464808372711  0.5508564355039686  0.1567561167914210
  0.8543392065200396  0.3817399291977469  0.1569559271133008
  0.9536214511247629  0.4364996585787409  0.1577108152323729
  0.9540914774986879  0.5478827395933640  0.1574670675660255
  0.8555601826833164  0.6046998263824229  0.1566892010308877
  0.0531364974616724  0.7149296139550826  0.1563780429553627
  0.1529042497746221  0.7696159504894586  0.1559350108852273
  0.0525450260566538  0.9363990152004511  0.1558752043643553
  0.2526549564477733  0.7134414850556964  0.1556029823624007
  0.3533642418617658  0.7672881132060917  0.1546002447008522
  0.3534733280505269  0.8792164035656210  0.1546872870955754
  0.2533169921020544  0.9353650397725304  0.1553338245691070
  0.4532930360511219  0.7084513311483654  0.1548628535726683
  0.5540795728446928  0.7650300700739746  0.1553473178224903
  0.5532965233720484  0.8778285944605629  0.1544753001789246
  0.4534651293858714  0.9349805966606709  0.1544230431642167
  0.6551525887041018  0.7098262365965284  0.1558211033278559
  0.7532372889751998  0.7691007567901769  0.1544125001695184
  0.7519976846892373  0.8809994330046592  0.1537028552479349
  0.6517412617497049  0.9363947787804681  0.1536831441864861
  0.8542666764052028  0.7158524688553697  0.1556083100007561
  0.9534485846449109  0.7707983124403126  0.1558688164449460
  0.8517901900645181  0.9366801459488375  0.1544258656619934
  0.1529631486622463  0.8808308971716123  0.1557593300503139
  0.9525580770066847  0.8818796913436189  0.1554612384926394
  0.4485008555828819  0.5977366394024244  0.1566011379518449
  0.6561725808419516  0.3860413798674461  0.1560816439747271
  0.4446217789694168  0.3819376742250749  0.1595426029969288
  0.6599242666702202  0.6017053323651276  0.1588266141020563
  0.5538071328776865  0.4925596605391169  0.2859086737025657
  0.5526133103580964  0.4919083456619659  0.1930176857209059
  0.5998937569756430  0.4440214059993300  0.3147274442428575
  0.5096554491337146  0.5418013510964234  0.3153332783804662
 
  0.00000000E+00  0.00000000E+00  0.00000000E+00
  0.00000000E+00  0.00000000E+00  0.00000000E+00
  0.00000000E+00  0.00000000E+00  0.00000000E+00
  0.00000000E+00  0.00000000E+00  0.00000000E+00
  0.00000000E+00  0.00000000E+00  0.00000000E+00
  0.00000000E+00  0.00000000E+00  0.00000000E+00
  0.00000000E+00  0.00000000E+00  0.00000000E+00
  0.00000000E+00  0.00000000E+00  0.00000000E+00
  0.00000000E+00  0.00000000E+00  0.00000000E+00
  0.00000000E+00  0.00000000E+00  0.00000000E+00
  0.00000000E+00  0.00000000E+00  0.00000000E+00
  0.00000000E+00  0.00000000E+00  0.00000000E+00
  0.00000000E+00  0.00000000E+00  0.00000000E+00
  0.00000000E+00  0.00000000E+00  0.00000000E+00
  0.00000000E+00  0.00000000E+00  0.00000000E+00
  0.00000000E+00  0.00000000E+00  0.00000000E+00
  0.00000000E+00  0.00000000E+00  0.00000000E+00
  0.00000000E+00  0.00000000E+00  0.00000000E+00
  0.00000000E+00  0.00000000E+00  0.00000000E+00
  0.00000000E+00  0.00000000E+00  0.00000000E+00
  0.00000000E+00  0.00000000E+00  0.00000000E+00
  0.00000000E+00  0.00000000E+00  0.00000000E+00
  0.00000000E+00  0.00000000E+00  0.00000000E+00
  0.00000000E+00  0.00000000E+00  0.00000000E+00
  0.00000000E+00  0.00000000E+00  0.00000000E+00
  0.00000000E+00  0.00000000E+00  0.00000000E+00
  0.00000000E+00  0.00000000E+00  0.00000000E+00
  0.00000000E+00  0.00000000E+00  0.00000000E+00
  0.00000000E+00  0.00000000E+00  0.00000000E+00
  0.00000000E+00  0.00000000E+00  0.00000000E+00
  0.00000000E+00  0.00000000E+00  0.00000000E+00
  0.00000000E+00  0.00000000E+00  0.00000000E+00
  0.00000000E+00  0.00000000E+00  0.00000000E+00
  0.00000000E+00  0.00000000E+00  0.00000000E+00
  0.00000000E+00  0.00000000E+00  0.00000000E+00
  0.00000000E+00  0.00000000E+00  0.00000000E+00
  0.00000000E+00  0.00000000E+00  0.00000000E+00
  0.00000000E+00  0.00000000E+00  0.00000000E+00
  0.00000000E+00  0.00000000E+00  0.00000000E+00
  0.00000000E+00  0.00000000E+00  0.00000000E+00
  0.00000000E+00  0.00000000E+00  0.00000000E+00
  0.00000000E+00  0.00000000E+00  0.00000000E+00
  0.00000000E+00  0.00000000E+00  0.00000000E+00
  0.00000000E+00  0.00000000E+00  0.00000000E+00
  0.00000000E+00  0.00000000E+00  0.00000000E+00
  0.00000000E+00  0.00000000E+00  0.00000000E+00
  0.00000000E+00  0.00000000E+00  0.00000000E+00
  0.00000000E+00  0.00000000E+00  0.00000000E+00
  0.00000000E+00  0.00000000E+00  0.00000000E+00
  0.00000000E+00  0.00000000E+00  0.00000000E+00
  0.00000000E+00  0.00000000E+00  0.00000000E+00
  0.00000000E+00  0.00000000E+00  0.00000000E+00
  0.00000000E+00  0.00000000E+00  0.00000000E+00
  0.00000000E+00  0.00000000E+00  0.00000000E+00
  0.00000000E+00  0.00000000E+00  0.00000000E+00
  0.00000000E+00  0.00000000E+00  0.00000000E+00
  0.00000000E+00  0.00000000E+00  0.00000000E+00
  0.00000000E+00  0.00000000E+00  0.00000000E+00
  0.00000000E+00  0.00000000E+00  0.00000000E+00
  0.00000000E+00  0.00000000E+00  0.00000000E+00
  0.00000000E+00  0.00000000E+00  0.00000000E+00
  0.00000000E+00  0.00000000E+00  0.00000000E+00
