Fe-pyrridine-N2-diagonal_nh2            
   1.00000000000000     
    12.5203820812999993    0.0000000000000000    0.0000000000000000
     0.0000000000000000   12.7832496472999999    0.0000000000000000
     0.0000000000000000    0.0000000000000000   19.8713392818999992
   C    N    Fe   H 
    56     3     1     2
Direct
  0.0525145107326304  0.0476460532764793  0.1576551055129248
  0.1526037990642060  0.1019062442792046  0.1578671118625491
  0.1513131134287296  0.2130299783888789  0.1578988942661144
  0.0518089924925969  0.2688897621671692  0.1570242723500177
  0.2535174246183434  0.0472386438354570  0.1581051857830538
  0.3532366305235812  0.1031604147213358  0.1588840687780694
  0.3516182085301474  0.2153632771098417  0.1595930417683752
  0.2504284593883025  0.2680444724409043  0.1587966601423891
  0.4533122559091396  0.0478899360072283  0.1596504342897175
  0.5516959085645625  0.1067562724254673  0.1601349969252063
  0.5509007063894622  0.2202247044966863  0.1605242709773042
  0.4494770903539824  0.2752570113437132  0.1619437123593201
  0.6513270620403063  0.0493337295699615  0.1590872682787093
  0.7510660779126642  0.1052129749399773  0.1578449912552272
  0.7511516932229261  0.2175739065637597  0.1563212647054184
  0.6512571577383809  0.2770242743900950  0.1572267047667974
  0.8513855511679820  0.0488966969273540  0.1577076677116912
  0.9519702979289520  0.1031923934052040  0.1574648250382905
  0.9518815424836645  0.2144331246410235  0.1566331096761840
  0.8522682850129245  0.2705836290933258  0.1553427376185096
  0.0522496346412322  0.3804200356448160  0.1565356184803228
  0.1506342557164294  0.4359147444145225  0.1573412561542445
  0.1513638143166499  0.5473624422899328  0.1572524804003912
  0.0533170084730344  0.6038378962823703  0.1566820478120068
  0.2487817071459386  0.3789265308546261  0.1584524193645989
  0.3465175823615547  0.4332111221129631  0.1597940750509649
  0.3478857145934003  0.5450955477880902  0.1577351812953844
  0.2505374678060645  0.6021337328086857  0.1572418503342278
  0.7575578686038023  0.4389770025886530  0.1526775112448037
  0.7589875721624135  0.5510708278151214  0.1548775026718367
  0.8550206910306603  0.3820378605037492  0.1537337480852755
  0.9541882639168019  0.4368603624114406  0.1550221265186059
  0.9549574768935615  0.5483650725850191  0.1552505784649014
  0.8568129949902871  0.6053327242628279  0.1550526904220874
  0.0538016590500730  0.7153962509818055  0.1572817271672856
  0.1537451699885256  0.7698893339887760  0.1578544382002301
  0.0531249736672854  0.9367063678470513  0.1577903901071539
  0.2533033459130249  0.7136201207592968  0.1575735746961021
  0.3544809329530300  0.7665200653085579  0.1576960261756898
  0.3545106107565397  0.8790029393174584  0.1580401773528395
  0.2542331944362249  0.9354591196559586  0.1579705908865514
  0.4544271615511871  0.7070931384185359  0.1588525273571129
  0.5547243862124752  0.7640991878517288  0.1597099334735764
  0.5538827685797185  0.8775660328385027  0.1593074698560567
  0.4541912490987087  0.9349218190023156  0.1590237345168432
  0.6562674810493151  0.7091745378812974  0.1593057964330276
  0.7539902422723249  0.7691859571295502  0.1571749547686193
  0.7523859124944603  0.8812784618089629  0.1575131431790516
  0.6521773528403837  0.9364761080924744  0.1587801569344536
  0.8550982110460865  0.7162740922808191  0.1563772706578656
  0.9542524149132439  0.7713083347204948  0.1569947911337877
  0.8521386286746057  0.9371208326114016  0.1575448865706777
  0.1536293382710606  0.8811942896892260  0.1579883439454013
  0.9530111269284159  0.8824130057662397  0.1575118063767793
  0.4486293758819139  0.5952020427853165  0.1604924425069361
  0.6569448742921278  0.3887343419151458  0.1562706773025850
  0.4442500608572540  0.3838997690352776  0.1648693908394024
  0.6616436320988833  0.6007892914953056  0.1602383977904039
  0.5446318893141184  0.4841774417411717  0.2797639426582106
  0.5536050142106383  0.4914567796484092  0.1895978732495855
  0.5771235341134137  0.5413198897896797  0.3095137452673947
  0.4985550868640959  0.4347638051404427  0.3079912754848332
 
  0.00000000E+00  0.00000000E+00  0.00000000E+00
  0.00000000E+00  0.00000000E+00  0.00000000E+00
  0.00000000E+00  0.00000000E+00  0.00000000E+00
  0.00000000E+00  0.00000000E+00  0.00000000E+00
  0.00000000E+00  0.00000000E+00  0.00000000E+00
  0.00000000E+00  0.00000000E+00  0.00000000E+00
  0.00000000E+00  0.00000000E+00  0.00000000E+00
  0.00000000E+00  0.00000000E+00  0.00000000E+00
  0.00000000E+00  0.00000000E+00  0.00000000E+00
  0.00000000E+00  0.00000000E+00  0.00000000E+00
  0.00000000E+00  0.00000000E+00  0.00000000E+00
  0.00000000E+00  0.00000000E+00  0.00000000E+00
  0.00000000E+00  0.00000000E+00  0.00000000E+00
  0.00000000E+00  0.00000000E+00  0.00000000E+00
  0.00000000E+00  0.00000000E+00  0.00000000E+00
  0.00000000E+00  0.00000000E+00  0.00000000E+00
  0.00000000E+00  0.00000000E+00  0.00000000E+00
  0.00000000E+00  0.00000000E+00  0.00000000E+00
  0.00000000E+00  0.00000000E+00  0.00000000E+00
  0.00000000E+00  0.00000000E+00  0.00000000E+00
  0.00000000E+00  0.00000000E+00  0.00000000E+00
  0.00000000E+00  0.00000000E+00  0.00000000E+00
  0.00000000E+00  0.00000000E+00  0.00000000E+00
  0.00000000E+00  0.00000000E+00  0.00000000E+00
  0.00000000E+00  0.00000000E+00  0.00000000E+00
  0.00000000E+00  0.00000000E+00  0.00000000E+00
  0.00000000E+00  0.00000000E+00  0.00000000E+00
  0.00000000E+00  0.00000000E+00  0.00000000E+00
  0.00000000E+00  0.00000000E+00  0.00000000E+00
  0.00000000E+00  0.00000000E+00  0.00000000E+00
  0.00000000E+00  0.00000000E+00  0.00000000E+00
  0.00000000E+00  0.00000000E+00  0.00000000E+00
  0.00000000E+00  0.00000000E+00  0.00000000E+00
  0.00000000E+00  0.00000000E+00  0.00000000E+00
  0.00000000E+00  0.00000000E+00  0.00000000E+00
  0.00000000E+00  0.00000000E+00  0.00000000E+00
  0.00000000E+00  0.00000000E+00  0.00000000E+00
  0.00000000E+00  0.00000000E+00  0.00000000E+00
  0.00000000E+00  0.00000000E+00  0.00000000E+00
  0.00000000E+00  0.00000000E+00  0.00000000E+00
  0.00000000E+00  0.00000000E+00  0.00000000E+00
  0.00000000E+00  0.00000000E+00  0.00000000E+00
  0.00000000E+00  0.00000000E+00  0.00000000E+00
  0.00000000E+00  0.00000000E+00  0.00000000E+00
  0.00000000E+00  0.00000000E+00  0.00000000E+00
  0.00000000E+00  0.00000000E+00  0.00000000E+00
  0.00000000E+00  0.00000000E+00  0.00000000E+00
  0.00000000E+00  0.00000000E+00  0.00000000E+00
  0.00000000E+00  0.00000000E+00  0.00000000E+00
  0.00000000E+00  0.00000000E+00  0.00000000E+00
  0.00000000E+00  0.00000000E+00  0.00000000E+00
  0.00000000E+00  0.00000000E+00  0.00000000E+00
  0.00000000E+00  0.00000000E+00  0.00000000E+00
  0.00000000E+00  0.00000000E+00  0.00000000E+00
  0.00000000E+00  0.00000000E+00  0.00000000E+00
  0.00000000E+00  0.00000000E+00  0.00000000E+00
  0.00000000E+00  0.00000000E+00  0.00000000E+00
  0.00000000E+00  0.00000000E+00  0.00000000E+00
  0.00000000E+00  0.00000000E+00  0.00000000E+00
  0.00000000E+00  0.00000000E+00  0.00000000E+00
  0.00000000E+00  0.00000000E+00  0.00000000E+00
  0.00000000E+00  0.00000000E+00  0.00000000E+00
