V-pyrridine-N2_nh2                      
   1.00000000000000     
    12.4562535760999999    0.0000000000000000    0.0000000000000000
     0.0000000000000000   12.8179684829999996    0.0000000000000000
     0.0000000000000000    0.0000000000000000   19.8713392818999992
   C    N    V    H 
    56     3     1     2
Direct
  0.0520168106700720  0.0473553697291872  0.1591510401244752
  0.1524837889288166  0.1024236210445873  0.1585163445124958
  0.1520414063368289  0.2133565259961975  0.1584466114395536
  0.0520591130785051  0.2688393072138367  0.1592590804716338
  0.2531497112812352  0.0476257843726505  0.1579631610504884
  0.3531312436866795  0.1035828251951290  0.1575195405045260
  0.3525590993537596  0.2154281813969417  0.1571125516682060
  0.2515842963678417  0.2689012988259046  0.1577919757873548
  0.4535704100053637  0.0479753506109513  0.1579296580092739
  0.5531018479043067  0.1058597871661913  0.1583088118767495
  0.5533073874006439  0.2185539290394113  0.1585494976647732
  0.4522399465116602  0.2745183487869298  0.1579375163893754
  0.6519576030718301  0.0479908140078829  0.1582799150466118
  0.7515959535166598  0.1038113985695266  0.1585781582087700
  0.7522828952980988  0.2156589207583390  0.1586377299696748
  0.6538555976508007  0.2746056361477800  0.1586574872525739
  0.8515662679869865  0.0476852624747447  0.1592254767900649
  0.9519573332622285  0.1024591883684392  0.1595250997504863
  0.9524422747549911  0.2137909183677220  0.1596893476950963
  0.8530186187090931  0.2695519665201489  0.1596417475244215
  0.0514068241651204  0.3803889736444386  0.1594059636393308
  0.1499380493728093  0.4361825342625939  0.1588529840411202
  0.1499466357428637  0.5475697741189910  0.1588338158583289
  0.0514163122897653  0.6033555163713853  0.1593622946101462
  0.2490035254268479  0.3801733782258389  0.1581823330776866
  0.3467834665673734  0.4355648194337219  0.1581826317207761
  0.3467876512869846  0.5481865541771905  0.1581792618463915
  0.2490125219966727  0.6035878597107200  0.1581640283440640
  0.7547418093506314  0.4354833828393608  0.1592362425772679
  0.7547550258579494  0.5482793877582695  0.1592196095079834
  0.8538326310752490  0.3807621803057606  0.1599773213698631
  0.9527590729879568  0.4362557931471628  0.1601032740639848
  0.9527711374117402  0.5474923813018693  0.1600733214006407
  0.8538590030921579  0.6029971372739253  0.1599259020057711
  0.0520596929194900  0.7149097731002492  0.1592129809307130
  0.1520362667832117  0.7703919331047431  0.1584236190070113
  0.0520062613627955  0.9364118210280848  0.1591389772279156
  0.2515863321891958  0.7148596689766720  0.1577709310868939
  0.3525590651574681  0.7683204415975167  0.1571084704483047
  0.3531261852596846  0.8801710730363026  0.1575106895066767
  0.2531323502284473  0.9361172974034436  0.1579610833798311
  0.4522369313922235  0.7092101238571162  0.1579613736699267
  0.5533080890084392  0.7651805856389469  0.1585540352360850
  0.5531070782483630  0.8778662633245808  0.1583041004570986
  0.4535731329972749  0.9357583979417665  0.1579244359820676
  0.6538620004192934  0.7091228161401687  0.1586331645467042
  0.7522855013080096  0.7680854311555574  0.1585943082744160
  0.7515969150545874  0.8799318086437129  0.1585572411737138
  0.6519599250673449  0.9357508444977459  0.1582879740575768
  0.8530317467632430  0.7142124787984611  0.1595836194119644
  0.9524478852173313  0.7699793898430894  0.1596277708448923
  0.8515653412129904  0.9360700849744757  0.1592025474298357
  0.1524661586959463  0.8813276115511380  0.1585049885002802
  0.9519578744850189  0.8813093786750619  0.1594799270764037
  0.4471650163438663  0.3847197451069328  0.1603004160357451
  0.4471790581581164  0.5990077071179427  0.1603078557103393
  0.6577114627077773  0.3831202726452234  0.1600405236037747
  0.6577212554657877  0.6006153486601372  0.1600224399194592
  0.5410715248095913  0.4918943657547954  0.2887651106067021
  0.5534136007448921  0.4918461544111039  0.1961143072712797
  0.6036013195900000  0.4918883227443295  0.3220417012743941
  0.4693041109441757  0.4918829783953780  0.3137091231049350
 
  0.00000000E+00  0.00000000E+00  0.00000000E+00
  0.00000000E+00  0.00000000E+00  0.00000000E+00
  0.00000000E+00  0.00000000E+00  0.00000000E+00
  0.00000000E+00  0.00000000E+00  0.00000000E+00
  0.00000000E+00  0.00000000E+00  0.00000000E+00
  0.00000000E+00  0.00000000E+00  0.00000000E+00
  0.00000000E+00  0.00000000E+00  0.00000000E+00
  0.00000000E+00  0.00000000E+00  0.00000000E+00
  0.00000000E+00  0.00000000E+00  0.00000000E+00
  0.00000000E+00  0.00000000E+00  0.00000000E+00
  0.00000000E+00  0.00000000E+00  0.00000000E+00
  0.00000000E+00  0.00000000E+00  0.00000000E+00
  0.00000000E+00  0.00000000E+00  0.00000000E+00
  0.00000000E+00  0.00000000E+00  0.00000000E+00
  0.00000000E+00  0.00000000E+00  0.00000000E+00
  0.00000000E+00  0.00000000E+00  0.00000000E+00
  0.00000000E+00  0.00000000E+00  0.00000000E+00
  0.00000000E+00  0.00000000E+00  0.00000000E+00
  0.00000000E+00  0.00000000E+00  0.00000000E+00
  0.00000000E+00  0.00000000E+00  0.00000000E+00
  0.00000000E+00  0.00000000E+00  0.00000000E+00
  0.00000000E+00  0.00000000E+00  0.00000000E+00
  0.00000000E+00  0.00000000E+00  0.00000000E+00
  0.00000000E+00  0.00000000E+00  0.00000000E+00
  0.00000000E+00  0.00000000E+00  0.00000000E+00
  0.00000000E+00  0.00000000E+00  0.00000000E+00
  0.00000000E+00  0.00000000E+00  0.00000000E+00
  0.00000000E+00  0.00000000E+00  0.00000000E+00
  0.00000000E+00  0.00000000E+00  0.00000000E+00
  0.00000000E+00  0.00000000E+00  0.00000000E+00
  0.00000000E+00  0.00000000E+00  0.00000000E+00
  0.00000000E+00  0.00000000E+00  0.00000000E+00
  0.00000000E+00  0.00000000E+00  0.00000000E+00
  0.00000000E+00  0.00000000E+00  0.00000000E+00
  0.00000000E+00  0.00000000E+00  0.00000000E+00
  0.00000000E+00  0.00000000E+00  0.00000000E+00
  0.00000000E+00  0.00000000E+00  0.00000000E+00
  0.00000000E+00  0.00000000E+00  0.00000000E+00
  0.00000000E+00  0.00000000E+00  0.00000000E+00
  0.00000000E+00  0.00000000E+00  0.00000000E+00
  0.00000000E+00  0.00000000E+00  0.00000000E+00
  0.00000000E+00  0.00000000E+00  0.00000000E+00
  0.00000000E+00  0.00000000E+00  0.00000000E+00
  0.00000000E+00  0.00000000E+00  0.00000000E+00
  0.00000000E+00  0.00000000E+00  0.00000000E+00
  0.00000000E+00  0.00000000E+00  0.00000000E+00
  0.00000000E+00  0.00000000E+00  0.00000000E+00
  0.00000000E+00  0.00000000E+00  0.00000000E+00
  0.00000000E+00  0.00000000E+00  0.00000000E+00
  0.00000000E+00  0.00000000E+00  0.00000000E+00
  0.00000000E+00  0.00000000E+00  0.00000000E+00
  0.00000000E+00  0.00000000E+00  0.00000000E+00
  0.00000000E+00  0.00000000E+00  0.00000000E+00
  0.00000000E+00  0.00000000E+00  0.00000000E+00
  0.00000000E+00  0.00000000E+00  0.00000000E+00
  0.00000000E+00  0.00000000E+00  0.00000000E+00
  0.00000000E+00  0.00000000E+00  0.00000000E+00
  0.00000000E+00  0.00000000E+00  0.00000000E+00
  0.00000000E+00  0.00000000E+00  0.00000000E+00
  0.00000000E+00  0.00000000E+00  0.00000000E+00
  0.00000000E+00  0.00000000E+00  0.00000000E+00
  0.00000000E+00  0.00000000E+00  0.00000000E+00
