Ti-pyrrole-N4_nh2                       
   1.00000000000000     
     8.4522143794000009   -0.0000149526000000   -0.0000000750000000
    -0.0000148635000000    8.4528876042000007   -0.0000010781000000
    -0.0000149627000000   -0.0000074641000000   17.3852863341000017
   C    N    Ti   H 
    20     5     1     2
Direct
  0.5000176107266933  0.0855779626832786  0.1518670130500995
  0.3515206588293557  0.1651264292096655  0.1520312799609269
  0.6485058362634077  0.1651261940737315  0.1520288661326613
  0.7946256924992583  0.9164569591053614  0.1519449866582340
  0.7946271528633759  0.0834870463060035  0.1519439314844368
  0.9172705864896236  0.2036439396469905  0.1507939084116608
  0.8342070584821185  0.3528825268950950  0.1503942824572669
  0.2054042211099156  0.0834881307593484  0.1519464024531818
  0.0827582928282449  0.2036444556725416  0.1507958343651845
  0.1658200471373919  0.3528772312471191  0.1503975017426441
  0.0852349055055046  0.4999762260431524  0.1500312532999127
  0.1658188662485900  0.6470630543376303  0.1503946868154230
  0.3515247048439368  0.8348196408863431  0.1520311797206415
  0.2054027574525177  0.9164579065309302  0.1519450709881174
  0.0827571776696697  0.7963021438041592  0.1507923761971179
  0.6485098897972718  0.8348177656809780  0.1520323850792390
  0.8342058939150162  0.6470672600207257  0.1503951192846920
  0.9172694905018608  0.7962995560373936  0.1507928323786452
  0.5000110747333005  0.9143670155151566  0.1518684830093507
  0.9147897340537406  0.4999688251575236  0.1500300211283642
  0.6727605992335463  0.3304500125454923  0.1521239047425271
  0.3272659303849890  0.3304509957332359  0.1521263035394559
  0.3272652866529311  0.6694948614263523  0.1521253417095584
  0.6727599782852046  0.6694942459609675  0.1521278344685330
  0.5000167442573302  0.4999726337877917  0.2855429457269568
  0.5000064200873983  0.4999725322045521  0.1774673460061053
  0.5996975688394475  0.4999728362051243  0.3186872538210291
  0.4003380917379212  0.4999724930029643  0.3186885245877353
 
  0.00000000E+00  0.00000000E+00  0.00000000E+00
  0.00000000E+00  0.00000000E+00  0.00000000E+00
  0.00000000E+00  0.00000000E+00  0.00000000E+00
  0.00000000E+00  0.00000000E+00  0.00000000E+00
  0.00000000E+00  0.00000000E+00  0.00000000E+00
  0.00000000E+00  0.00000000E+00  0.00000000E+00
  0.00000000E+00  0.00000000E+00  0.00000000E+00
  0.00000000E+00  0.00000000E+00  0.00000000E+00
  0.00000000E+00  0.00000000E+00  0.00000000E+00
  0.00000000E+00  0.00000000E+00  0.00000000E+00
  0.00000000E+00  0.00000000E+00  0.00000000E+00
  0.00000000E+00  0.00000000E+00  0.00000000E+00
  0.00000000E+00  0.00000000E+00  0.00000000E+00
  0.00000000E+00  0.00000000E+00  0.00000000E+00
  0.00000000E+00  0.00000000E+00  0.00000000E+00
  0.00000000E+00  0.00000000E+00  0.00000000E+00
  0.00000000E+00  0.00000000E+00  0.00000000E+00
  0.00000000E+00  0.00000000E+00  0.00000000E+00
  0.00000000E+00  0.00000000E+00  0.00000000E+00
  0.00000000E+00  0.00000000E+00  0.00000000E+00
  0.00000000E+00  0.00000000E+00  0.00000000E+00
  0.00000000E+00  0.00000000E+00  0.00000000E+00
  0.00000000E+00  0.00000000E+00  0.00000000E+00
  0.00000000E+00  0.00000000E+00  0.00000000E+00
  0.00000000E+00  0.00000000E+00  0.00000000E+00
  0.00000000E+00  0.00000000E+00  0.00000000E+00
  0.00000000E+00  0.00000000E+00  0.00000000E+00
  0.00000000E+00  0.00000000E+00  0.00000000E+00
