Cr-N3-pyrrole_nh2                       
   1.00000000000000     
     8.4610536675999999    0.0021414846000000   -0.0001063775000000
     0.0020918541000000    8.4623743284999993    0.0000265084000000
    -0.0002495025000000    0.0000622620000000   19.8380297448000000
   C    N    Cr   H 
    21     4     1     2
Direct
  0.4966875497594151  0.0831473467647551  0.1543215725327571
  0.3486337455726876  0.1640343236193610  0.1555610361908064
  0.6424109830476018  0.1648744591629104  0.1522049219925825
  0.7931751328607615  0.9190693689306831  0.1530348094414665
  0.7899772154592156  0.0834154683650858  0.1514747958043369
  0.9163627353185027  0.2078124856566361  0.1507258130371245
  0.8329340993490387  0.3584078062211398  0.1507108880684446
  0.2029680538699056  0.0823894505430265  0.1535012307624792
  0.0791189537191360  0.2047519415192266  0.1523390214608674
  0.1659663976213759  0.3544482855334565  0.1539425580997226
  0.0858962243797469  0.5017969955075376  0.1523610942707719
  0.1663043320077640  0.6477544725245519  0.1503956657040378
  0.3502888007256457  0.8337277680823570  0.1519617712214988
  0.2033583813247231  0.9170142039361491  0.1516036484128221
  0.0815234326565240  0.7970563214792474  0.1503391904503278
  0.6462634191846591  0.8341576580143357  0.1548320183539309
  0.8341243466335381  0.6493135352944349  0.1538846097011035
  0.9172003620354011  0.7973987369842209  0.1523101052908679
  0.4977053128394519  0.9130766147219759  0.1539517689093528
  0.9159582112723914  0.5028799619600971  0.1523235010412163
  0.6665250456418529  0.3347184313020617  0.1528068712803815
  0.3252545509805776  0.3295723164904270  0.1574875376265000
  0.3265534071024461  0.6710714579372397  0.1513284156951946
  0.6721220092109073  0.6715017891968206  0.1567777729921334
  0.5076282242767155  0.4978991397895917  0.2619955168404453
  0.4991743970047151  0.5013309525633330  0.1713769009123729
  0.5939700907879129  0.5545974929584599  0.2885929389555111
  0.4420811875013702  0.4222195226486624  0.2907353711422455
 
  0.00000000E+00  0.00000000E+00  0.00000000E+00
  0.00000000E+00  0.00000000E+00  0.00000000E+00
  0.00000000E+00  0.00000000E+00  0.00000000E+00
  0.00000000E+00  0.00000000E+00  0.00000000E+00
  0.00000000E+00  0.00000000E+00  0.00000000E+00
  0.00000000E+00  0.00000000E+00  0.00000000E+00
  0.00000000E+00  0.00000000E+00  0.00000000E+00
  0.00000000E+00  0.00000000E+00  0.00000000E+00
  0.00000000E+00  0.00000000E+00  0.00000000E+00
  0.00000000E+00  0.00000000E+00  0.00000000E+00
  0.00000000E+00  0.00000000E+00  0.00000000E+00
  0.00000000E+00  0.00000000E+00  0.00000000E+00
  0.00000000E+00  0.00000000E+00  0.00000000E+00
  0.00000000E+00  0.00000000E+00  0.00000000E+00
  0.00000000E+00  0.00000000E+00  0.00000000E+00
  0.00000000E+00  0.00000000E+00  0.00000000E+00
  0.00000000E+00  0.00000000E+00  0.00000000E+00
  0.00000000E+00  0.00000000E+00  0.00000000E+00
  0.00000000E+00  0.00000000E+00  0.00000000E+00
  0.00000000E+00  0.00000000E+00  0.00000000E+00
  0.00000000E+00  0.00000000E+00  0.00000000E+00
  0.00000000E+00  0.00000000E+00  0.00000000E+00
  0.00000000E+00  0.00000000E+00  0.00000000E+00
  0.00000000E+00  0.00000000E+00  0.00000000E+00
  0.00000000E+00  0.00000000E+00  0.00000000E+00
  0.00000000E+00  0.00000000E+00  0.00000000E+00
  0.00000000E+00  0.00000000E+00  0.00000000E+00
  0.00000000E+00  0.00000000E+00  0.00000000E+00
