"C198 N9 H18 Co1 O8"                    
   1.00000000000000     
    22.2156696320000009    0.0000000000000000    0.0000000000000000
   -11.1017414686000002   19.2335116653000000    0.0000000000000000
    -0.1086982704000000   -0.0825333262000000   25.5765439707000013
   C    N    H    Co   O 
   198     9    18     1     8
Direct
  0.9999018552432304  0.9998684138286791  0.0385985500853891
  0.0370169996644876  0.0739947396327238  0.0372729757894845
  0.0000016920759833  0.1110673046319306  0.0377843654469316
  0.0370722011234363  0.1851652783548943  0.0356750721514842
  0.0000409478677668  0.2222441387893213  0.0362064847645911
  0.0370071784450943  0.2962438870882806  0.0332325152148059
  0.9999324133519210  0.3332668860810131  0.0333003335154061
  0.0368978343300981  0.4072459986869177  0.0306098161046719
  0.9998551855710218  0.4442555186203947  0.0313747352425224
  0.0368831757604511  0.5183658124142099  0.0312454877440231
  0.9997708036838020  0.5553582472443281  0.0328659528603410
  0.0367991448333456  0.6293732700671058  0.0352757695673063
  0.9996648780420188  0.6663385145980314  0.0365219287572103
  0.0367268962049394  0.7404029481297911  0.0390791805630286
  0.9996724233062864  0.7774529788367275  0.0390869940386480
  0.0368014850485423  0.8516002774831222  0.0400576765067910
  0.9997865201935596  0.8886744382149203  0.0393234757568521
  0.0369296376439081  0.9627999909021199  0.0388301441190890
  0.1109846310018341  0.9998159117716696  0.0374888384821261
  0.1480168369008723  0.0738530473272050  0.0344829435910015
  0.1110316466274526  0.1109650602138501  0.0344302898930806
  0.1480037971721515  0.1849600888207021  0.0312303720277001
  0.1110195538128096  0.2220892814322966  0.0320658306492518
  0.1479874741283354  0.2961312477693454  0.0290226504565538
  0.1109569814257654  0.3332007715453358  0.0296648602996612
  0.1479127466200580  0.4072457670931797  0.0268273796250540
  0.1108645652332783  0.4442718518936246  0.0277537202802378
  0.1479076516017201  0.5183727005320407  0.0272369376633250
  0.1109140509947508  0.5554190883469232  0.0299774599119758
  0.1479569430462462  0.6294458425865983  0.0325226509916874
  0.1109086972316007  0.6663794560749992  0.0358806228936217
  0.1479422703970101  0.7404299230479978  0.0388164043109356
  0.1108497006299203  0.7774536652266377  0.0403438610352467
  0.1479110079953472  0.8515787353265480  0.0411016354929146
  0.1108990630122477  0.8886859976378503  0.0404133769789610
  0.1479691813782154  0.9627580789150159  0.0384691139343758
  0.2220126286213784  0.9998018665577035  0.0371454312964232
  0.2590240409267039  0.0737576937811895  0.0334330100675118
  0.2219728088715769  0.1107955440228636  0.0316237312059044
  0.2589462073661934  0.1847791446682479  0.0279427558514982
  0.2219246807137836  0.2218602936102059  0.0275682437408946
  0.2589100064052161  0.2959280167955782  0.0249147016355309
  0.2219385565956173  0.3330734579870338  0.0254933297256770
  0.2589187286690375  0.4071452057619567  0.0233689316084806
  0.2219028490432393  0.4442628918030707  0.0240335437140402
  0.2589714438289832  0.5184216570657796  0.0234425830127307
  0.2219780499665376  0.5554755539349685  0.0255958053473151
  0.2590689049632715  0.6295577801324583  0.0280392161395540
  0.2220561186068508  0.6664821220024066  0.0321435229750122
  0.2590899029141909  0.7404463826966392  0.0360526514682249
  0.2220303830466506  0.7774408203657828  0.0391228844021185
  0.2590933723135223  0.8515740114206807  0.0409470145589097
  0.2220236824290538  0.8886503374795822  0.0411186782783091
  0.2590845016727812  0.9628122400266079  0.0394325695828144
  0.3331804496854218  0.9998914622391268  0.0390784683119492
  0.3701804159887985  0.0739246735300085  0.0358114468336481
  0.3330963834599956  0.1108152834651221  0.0323284385988316
  0.3700822231491401  0.1847827264700399  0.0283664774288965
  0.3329847249853302  0.2217660559579002  0.0259642439095131
  0.3700175745979024  0.2958234300426739  0.0233500362925554
  0.3329572917037211  0.3329245333956408  0.0228741739886473
  0.3700150140356442  0.4070890626390451  0.0217132187048179
  0.3330052990018331  0.4442059593151200  0.0217739236512102
  0.3701198914386552  0.5184206723295404  0.0215026423030196
  0.3330774705638362  0.5555108823062369  0.0226102661717889
  0.3701837936135774  0.6296080236711532  0.0247396896790377
  0.3331392908083473  0.6665836156751510  0.0280147919816258
  0.3702159246400001  0.7405389000571247  0.0324187130732554
  0.3332002278227435  0.7774938038203345  0.0362769225034469
  0.3702587424640313  0.8515680169399076  0.0395079846112552
  0.3332096100749382  0.8886534128199273  0.0410367051359799
  0.3702388235577203  0.9628172194240747  0.0409103402345750
  0.4443369546621128  0.9998984199357963  0.0409828436381758
  0.4813446641177705  0.0740285837665198  0.0390335898973504
  0.4442679232586713  0.1110032508328302  0.0357213456167358
  0.4812494304188206  0.1849487511119960  0.0316630342294388
  0.4441609302786205  0.2218498627601022  0.0278053562722249
  0.4812142298740696  0.2958635764725059  0.0242203245342409
  0.4441459646338188  0.3328810530607313  0.0223538185644188
  0.4812606935697232  0.4070421068329821  0.0210255027930586
  0.4441997967981663  0.4441739566830023  0.0211740035899055
  0.4813133079765777  0.5184003885181170  0.0209984953271132
  0.4442346590017152  0.5555007432707981  0.0213831264455777
  0.4813425063063761  0.6296527069021280  0.0227773897621546
  0.4442857426584723  0.6666448712179260  0.0251638612297143
  0.4813822161200747  0.7406766927450406  0.0290408319065349
  0.4443442884369944  0.7775965205843107  0.0329215401259688
  0.4813772915895242  0.8515880441213213  0.0369874504128518
  0.4443375117684738  0.8886199839310791  0.0397685453415662
  0.4813737736182162  0.9627837874110128  0.0413523265300313
  0.5554714141410031  0.9998633066650982  0.0415394763730035
  0.5924913717428879  0.0740271512629747  0.0411783123739369
  0.5554183550928045  0.1110889135640107  0.0390789006289296
  0.5924252125144776  0.1851247637777931  0.0356571898778313
  0.5553659812288316  0.2220320890036760  0.0314736079578353
  0.5923868208867447  0.2959627740048987  0.0271899249229293
  0.5553173283526647  0.3329285223043499  0.0238669517119732
  0.5924015626730252  0.4070223913164170  0.0217950328839507
  0.5553673688012282  0.4441319095512029  0.0206771216452921
  0.5924866402667064  0.5183483539992153  0.0207971876592410
  0.5554773714747441  0.5554712662717023  0.0209488831477245
  0.5925521078836624  0.6296588923512587  0.0221781172335724
  0.5554802721290599  0.6667213967149408  0.0233587231165231
  0.5925427928116633  0.7407859536652879  0.0263812560825940
  0.5554766396220074  0.7777393895372811  0.0295480820975413
  0.5925111719578808  0.8517236629250178  0.0337643118755793
  0.5554693007049565  0.8886544267490066  0.0372985171764242
  0.5925091044420583  0.9627493126328019  0.0402906878516518
  0.6666076672784271  0.9998350248777257  0.0405018716838228
  0.7036816986029777  0.0740327716639158  0.0416178143935753
  0.6666005475409733  0.1111047447042779  0.0411104575328380
  0.7036237928973534  0.1852126178464530  0.0389273308251461
  0.6665305690671275  0.2221782489706143  0.0356441650253387
  0.7035069004718295  0.2961105072777883  0.0317627109785903
  0.6664486779625562  0.3330131380762822  0.0275583829920265
  0.7035160427725273  0.4070884534446293  0.0253443347582163
  0.6665139933888327  0.4441351880157640  0.0228851140915509
  0.7035944460456562  0.5183074893423125  0.0235000491987094
  0.6665962364301450  0.5554327321633252  0.0224310637664971
  0.7036140554093251  0.6295361070771008  0.0245214501249222
  0.6666339734135320  0.6666857460879712  0.0239510729264794
  0.7036593921977712  0.7407699680306905  0.0268431634618764
  0.6666135146943830  0.7778105691974275  0.0279243444522024
  0.7036406402868138  0.8518146363035228  0.0319864263824385
  0.6665995262189170  0.8888087872134065  0.0345218509152829
  0.7036558263340353  0.9628069356065652  0.0382103382888559
  0.7777297073631928  0.9998880376857429  0.0389896337964046
  0.8148144140682021  0.0740021274359037  0.0406408272805976
  0.7777948113121766  0.1111072587682642  0.0412690333021715
  0.8148311636227916  0.1852184802818186  0.0401011884924714
  0.7777049295730407  0.2222219385362791  0.0385237464395232
  0.8146846750458749  0.2962377694660105  0.0355399053292871
  0.7775947358860549  0.3331552954506520  0.0323186424540083
  0.8146156654057606  0.4071856299088239  0.0300427632129185
  0.7775854648040479  0.4442046473118779  0.0273669779922443
  0.8146422225120062  0.5183034402573270  0.0280955443735564
  0.7775873848969823  0.5553272965295832  0.0268169932035818
  0.8145888221603244  0.6294107615789954  0.0295927298837313
  0.7775850838594636  0.6665019345797987  0.0284176775158613
  0.8146074189439290  0.7405768586833261  0.0314282351729034
  0.7776346189744885  0.7777099256571276  0.0304517951851224
  0.8146419544652019  0.8517137882196337  0.0339252084646944
  0.7776562124840609  0.8888146707067932  0.0343891610048388
  0.8147134060660690  0.9628432139387542  0.0375848755852743
  0.8887808803812476  0.9998873104725092  0.0387952256931783
  0.9259175803335395  0.0740087155704643  0.0393531950790020
  0.8889034631683330  0.1110898781061778  0.0400143282585006
  0.9259941705116148  0.1852164836880803  0.0388074858404011
  0.8889235967873503  0.2222519097632869  0.0386456900866818
  0.9259373324499052  0.2962873588241024  0.0359667747890597
  0.8887807714077951  0.3332391466366857  0.0348580063347441
  0.9257748298081054  0.4072505296984161  0.0326346499269619
  0.8886643167372839  0.4442561745834865  0.0312939519802953
  0.9256922273304582  0.5183445988888380  0.0316590298585098
  0.8886300972692780  0.5553343156781096  0.0311189188286249
  0.9256314378870201  0.6293350683306898  0.0338546724337760
  0.8885675278352636  0.6663714614757694  0.0335231835137648
  0.9255961092472234  0.7404136886871484  0.0363664924810649
  0.8885746350039341  0.7775036620919735  0.0354344593084761
  0.9256868781987748  0.8516209654101488  0.0375809456555771
  0.8886729695572342  0.8886941450641004  0.0369530086505776
  0.9258009494898900  0.9628252665407260  0.0385044112819131
  0.2634853761379432  0.1364671713424386  0.1611507105009622
  0.3338387021301799  0.1889880319029515  0.1594249875997420
  0.3481946313899584  0.2578102262918947  0.1572471454905937
  0.2945689900851249  0.2743657606353693  0.1567692359851520
  0.2243714361401175  0.2221685809972627  0.1584723417651119
  0.2095188720895038  0.1532115540088270  0.1606645382786098
  0.3286393456034560  0.3501091726674090  0.1546029781742959
  0.4136763286406335  0.3238533776473602  0.1552821055463838
  0.3249330564008446  0.4524779214427141  0.1545510704234658
  0.4051133580825663  0.5660271789118596  0.1554477002125125
  0.2869009012381980  0.4904172823752901  0.1558531631968521
  0.3375233213618500  0.5618697582566341  0.1562449025799992
  0.3186039899114732  0.6133857802525142  0.1569153528557905
  0.2477506574511494  0.5916989966234354  0.1574542567032040
  0.1965797615773965  0.5198411642589988  0.1576742115832133
  0.2158654790158820  0.4682794149811471  0.1567144296425553
  0.5340357717107551  0.3871964753069363  0.1546797670793296
  0.6143112706838139  0.5003105931767493  0.1535472174772110
  0.6200257140869425  0.3391757558342547  0.1575807281786865
  0.6908584227315018  0.3605138005888833  0.1589145500295643
  0.7423189491562425  0.4322251665932981  0.1583162822545319
  0.7233169712501279  0.4840380800959494  0.1563598195715130
  0.6523849105701345  0.4622494774493759  0.1550652887538746
  0.6015104633188599  0.3909150375091315  0.1557468280327683
  0.6103629329969849  0.6025832771664739  0.1541670880054440
  0.5254798602580877  0.6294092291725519  0.1559931556376881
  0.6445132076355122  0.6782239594244288  0.1562701319387330
  0.7149222652284308  0.7301573597373192  0.1570866940650504
  0.7302813989803596  0.7992194961793686  0.1596740634333784
  0.6766665951896798  0.8164483615892664  0.1616545808986842
  0.6061228095274984  0.7642452752067115  0.1606412727268989
  0.5911147558806604  0.6951704368474907  0.1577425577521723
  0.1207974394040860  0.4967091571173228  0.1581610960785582
  0.6983883303832030  0.8918115422174182  0.1638817623460156
  0.8180265241445142  0.4550278737534370  0.1588562482988465
  0.2423258585166792  0.0612182468526683  0.1622272083608891
  0.4004386332236152  0.3786933841179376  0.1533221175292212
  0.2930633295631040  0.3835528526241418  0.1548139522599001
  0.3962987150040647  0.4992994309788372  0.1537828285192049
  0.4748558659401922  0.3269309407995991  0.1557547476919510
  0.5431080919985192  0.4537611402958532  0.1529675636382564
  0.6460612865389450  0.5691905747098787  0.1537625383848962
  0.5383580222789845  0.5741155471622221  0.1536915262786849
  0.4642824436465034  0.6263340510033544  0.1566604397551359
  0.4699623788710028  0.4759280644743882  0.2322208800024015
  0.3754559979239218  0.1765839052460194  0.1594084437718877
  0.1831876015898359  0.2353324262842520  0.1576904971584057
  0.1559004980160665  0.1104235841763526  0.1613203243992132
  0.3581664351937093  0.6683439827769959  0.1565439124629862
  0.2308805188169032  0.6300860039718685  0.1570353949347520
  0.1762284413163258  0.4133812239554260  0.1563330291950393
  0.5802591683499045  0.2842621112573838  0.1576508097992786
  0.7074877609755177  0.3219408762539828  0.1597763811068376
  0.7631740987003042  0.5388823321403819  0.1556735104537594
  0.7558526317860483  0.7166885932108045  0.1552139162133912
  0.7839631135806826  0.8418545200448477  0.1596706022396930
  0.5647890947297114  0.7770861305137089  0.1617216044294594
  0.0578416750368334  0.5310072695642347  0.1585588354794254
  0.6635994159077541  0.9539176134600211  0.1675624979496035
  0.8805482002667233  0.4203171119843674  0.1605440094601747
  0.2781659129817200  0.9998803977379325  0.1607033485610998
  0.5106365820326815  0.5244893334965965  0.2425642573678246
  0.4271317757560880  0.4801119510489826  0.2424607052706307
  0.4694781517769400  0.4767396428540351  0.1569775853079776
  0.1084340732990654  0.5515505983334421  0.1598978662169941
  0.0733840899359279  0.4359363177686575  0.1569598295314520
  0.6431058895205126  0.9032758070583711  0.1674650296530444
  0.7587974144523244  0.9397857825314446  0.1624623305688147
  0.8300312694592691  0.4000720955343837  0.1618138179292288
  0.8656617974869505  0.5156177937127708  0.1566046121691258
  0.2982165629960249  0.0504437555007229  0.1617065889742264
  0.1820816443154740  0.0129027687611085  0.1628517177842070
 
  0.00000000E+00  0.00000000E+00  0.00000000E+00
  0.00000000E+00  0.00000000E+00  0.00000000E+00
  0.00000000E+00  0.00000000E+00  0.00000000E+00
  0.00000000E+00  0.00000000E+00  0.00000000E+00
  0.00000000E+00  0.00000000E+00  0.00000000E+00
  0.00000000E+00  0.00000000E+00  0.00000000E+00
  0.00000000E+00  0.00000000E+00  0.00000000E+00
  0.00000000E+00  0.00000000E+00  0.00000000E+00
  0.00000000E+00  0.00000000E+00  0.00000000E+00
  0.00000000E+00  0.00000000E+00  0.00000000E+00
  0.00000000E+00  0.00000000E+00  0.00000000E+00
  0.00000000E+00  0.00000000E+00  0.00000000E+00
  0.00000000E+00  0.00000000E+00  0.00000000E+00
  0.00000000E+00  0.00000000E+00  0.00000000E+00
  0.00000000E+00  0.00000000E+00  0.00000000E+00
  0.00000000E+00  0.00000000E+00  0.00000000E+00
  0.00000000E+00  0.00000000E+00  0.00000000E+00
  0.00000000E+00  0.00000000E+00  0.00000000E+00
  0.00000000E+00  0.00000000E+00  0.00000000E+00
  0.00000000E+00  0.00000000E+00  0.00000000E+00
  0.00000000E+00  0.00000000E+00  0.00000000E+00
  0.00000000E+00  0.00000000E+00  0.00000000E+00
  0.00000000E+00  0.00000000E+00  0.00000000E+00
  0.00000000E+00  0.00000000E+00  0.00000000E+00
  0.00000000E+00  0.00000000E+00  0.00000000E+00
  0.00000000E+00  0.00000000E+00  0.00000000E+00
  0.00000000E+00  0.00000000E+00  0.00000000E+00
  0.00000000E+00  0.00000000E+00  0.00000000E+00
  0.00000000E+00  0.00000000E+00  0.00000000E+00
  0.00000000E+00  0.00000000E+00  0.00000000E+00
  0.00000000E+00  0.00000000E+00  0.00000000E+00
  0.00000000E+00  0.00000000E+00  0.00000000E+00
  0.00000000E+00  0.00000000E+00  0.00000000E+00
  0.00000000E+00  0.00000000E+00  0.00000000E+00
  0.00000000E+00  0.00000000E+00  0.00000000E+00
  0.00000000E+00  0.00000000E+00  0.00000000E+00
  0.00000000E+00  0.00000000E+00  0.00000000E+00
  0.00000000E+00  0.00000000E+00  0.00000000E+00
  0.00000000E+00  0.00000000E+00  0.00000000E+00
  0.00000000E+00  0.00000000E+00  0.00000000E+00
  0.00000000E+00  0.00000000E+00  0.00000000E+00
  0.00000000E+00  0.00000000E+00  0.00000000E+00
  0.00000000E+00  0.00000000E+00  0.00000000E+00
  0.00000000E+00  0.00000000E+00  0.00000000E+00
  0.00000000E+00  0.00000000E+00  0.00000000E+00
  0.00000000E+00  0.00000000E+00  0.00000000E+00
  0.00000000E+00  0.00000000E+00  0.00000000E+00
  0.00000000E+00  0.00000000E+00  0.00000000E+00
  0.00000000E+00  0.00000000E+00  0.00000000E+00
  0.00000000E+00  0.00000000E+00  0.00000000E+00
  0.00000000E+00  0.00000000E+00  0.00000000E+00
  0.00000000E+00  0.00000000E+00  0.00000000E+00
  0.00000000E+00  0.00000000E+00  0.00000000E+00
  0.00000000E+00  0.00000000E+00  0.00000000E+00
  0.00000000E+00  0.00000000E+00  0.00000000E+00
  0.00000000E+00  0.00000000E+00  0.00000000E+00
  0.00000000E+00  0.00000000E+00  0.00000000E+00
  0.00000000E+00  0.00000000E+00  0.00000000E+00
  0.00000000E+00  0.00000000E+00  0.00000000E+00
  0.00000000E+00  0.00000000E+00  0.00000000E+00
  0.00000000E+00  0.00000000E+00  0.00000000E+00
  0.00000000E+00  0.00000000E+00  0.00000000E+00
  0.00000000E+00  0.00000000E+00  0.00000000E+00
  0.00000000E+00  0.00000000E+00  0.00000000E+00
  0.00000000E+00  0.00000000E+00  0.00000000E+00
  0.00000000E+00  0.00000000E+00  0.00000000E+00
  0.00000000E+00  0.00000000E+00  0.00000000E+00
  0.00000000E+00  0.00000000E+00  0.00000000E+00
  0.00000000E+00  0.00000000E+00  0.00000000E+00
  0.00000000E+00  0.00000000E+00  0.00000000E+00
  0.00000000E+00  0.00000000E+00  0.00000000E+00
  0.00000000E+00  0.00000000E+00  0.00000000E+00
  0.00000000E+00  0.00000000E+00  0.00000000E+00
  0.00000000E+00  0.00000000E+00  0.00000000E+00
  0.00000000E+00  0.00000000E+00  0.00000000E+00
  0.00000000E+00  0.00000000E+00  0.00000000E+00
  0.00000000E+00  0.00000000E+00  0.00000000E+00
  0.00000000E+00  0.00000000E+00  0.00000000E+00
  0.00000000E+00  0.00000000E+00  0.00000000E+00
  0.00000000E+00  0.00000000E+00  0.00000000E+00
  0.00000000E+00  0.00000000E+00  0.00000000E+00
  0.00000000E+00  0.00000000E+00  0.00000000E+00
  0.00000000E+00  0.00000000E+00  0.00000000E+00
  0.00000000E+00  0.00000000E+00  0.00000000E+00
  0.00000000E+00  0.00000000E+00  0.00000000E+00
  0.00000000E+00  0.00000000E+00  0.00000000E+00
  0.00000000E+00  0.00000000E+00  0.00000000E+00
  0.00000000E+00  0.00000000E+00  0.00000000E+00
  0.00000000E+00  0.00000000E+00  0.00000000E+00
  0.00000000E+00  0.00000000E+00  0.00000000E+00
  0.00000000E+00  0.00000000E+00  0.00000000E+00
  0.00000000E+00  0.00000000E+00  0.00000000E+00
  0.00000000E+00  0.00000000E+00  0.00000000E+00
  0.00000000E+00  0.00000000E+00  0.00000000E+00
  0.00000000E+00  0.00000000E+00  0.00000000E+00
  0.00000000E+00  0.00000000E+00  0.00000000E+00
  0.00000000E+00  0.00000000E+00  0.00000000E+00
  0.00000000E+00  0.00000000E+00  0.00000000E+00
  0.00000000E+00  0.00000000E+00  0.00000000E+00
  0.00000000E+00  0.00000000E+00  0.00000000E+00
  0.00000000E+00  0.00000000E+00  0.00000000E+00
  0.00000000E+00  0.00000000E+00  0.00000000E+00
  0.00000000E+00  0.00000000E+00  0.00000000E+00
  0.00000000E+00  0.00000000E+00  0.00000000E+00
  0.00000000E+00  0.00000000E+00  0.00000000E+00
  0.00000000E+00  0.00000000E+00  0.00000000E+00
  0.00000000E+00  0.00000000E+00  0.00000000E+00
  0.00000000E+00  0.00000000E+00  0.00000000E+00
  0.00000000E+00  0.00000000E+00  0.00000000E+00
  0.00000000E+00  0.00000000E+00  0.00000000E+00
  0.00000000E+00  0.00000000E+00  0.00000000E+00
  0.00000000E+00  0.00000000E+00  0.00000000E+00
  0.00000000E+00  0.00000000E+00  0.00000000E+00
  0.00000000E+00  0.00000000E+00  0.00000000E+00
  0.00000000E+00  0.00000000E+00  0.00000000E+00
  0.00000000E+00  0.00000000E+00  0.00000000E+00
  0.00000000E+00  0.00000000E+00  0.00000000E+00
  0.00000000E+00  0.00000000E+00  0.00000000E+00
  0.00000000E+00  0.00000000E+00  0.00000000E+00
  0.00000000E+00  0.00000000E+00  0.00000000E+00
  0.00000000E+00  0.00000000E+00  0.00000000E+00
  0.00000000E+00  0.00000000E+00  0.00000000E+00
  0.00000000E+00  0.00000000E+00  0.00000000E+00
  0.00000000E+00  0.00000000E+00  0.00000000E+00
  0.00000000E+00  0.00000000E+00  0.00000000E+00
  0.00000000E+00  0.00000000E+00  0.00000000E+00
  0.00000000E+00  0.00000000E+00  0.00000000E+00
  0.00000000E+00  0.00000000E+00  0.00000000E+00
  0.00000000E+00  0.00000000E+00  0.00000000E+00
  0.00000000E+00  0.00000000E+00  0.00000000E+00
  0.00000000E+00  0.00000000E+00  0.00000000E+00
  0.00000000E+00  0.00000000E+00  0.00000000E+00
  0.00000000E+00  0.00000000E+00  0.00000000E+00
  0.00000000E+00  0.00000000E+00  0.00000000E+00
  0.00000000E+00  0.00000000E+00  0.00000000E+00
  0.00000000E+00  0.00000000E+00  0.00000000E+00
  0.00000000E+00  0.00000000E+00  0.00000000E+00
  0.00000000E+00  0.00000000E+00  0.00000000E+00
  0.00000000E+00  0.00000000E+00  0.00000000E+00
  0.00000000E+00  0.00000000E+00  0.00000000E+00
  0.00000000E+00  0.00000000E+00  0.00000000E+00
  0.00000000E+00  0.00000000E+00  0.00000000E+00
  0.00000000E+00  0.00000000E+00  0.00000000E+00
  0.00000000E+00  0.00000000E+00  0.00000000E+00
  0.00000000E+00  0.00000000E+00  0.00000000E+00
  0.00000000E+00  0.00000000E+00  0.00000000E+00
  0.00000000E+00  0.00000000E+00  0.00000000E+00
  0.00000000E+00  0.00000000E+00  0.00000000E+00
  0.00000000E+00  0.00000000E+00  0.00000000E+00
  0.00000000E+00  0.00000000E+00  0.00000000E+00
  0.00000000E+00  0.00000000E+00  0.00000000E+00
  0.00000000E+00  0.00000000E+00  0.00000000E+00
  0.00000000E+00  0.00000000E+00  0.00000000E+00
  0.00000000E+00  0.00000000E+00  0.00000000E+00
  0.00000000E+00  0.00000000E+00  0.00000000E+00
  0.00000000E+00  0.00000000E+00  0.00000000E+00
  0.00000000E+00  0.00000000E+00  0.00000000E+00
  0.00000000E+00  0.00000000E+00  0.00000000E+00
  0.00000000E+00  0.00000000E+00  0.00000000E+00
  0.00000000E+00  0.00000000E+00  0.00000000E+00
  0.00000000E+00  0.00000000E+00  0.00000000E+00
  0.00000000E+00  0.00000000E+00  0.00000000E+00
  0.00000000E+00  0.00000000E+00  0.00000000E+00
  0.00000000E+00  0.00000000E+00  0.00000000E+00
  0.00000000E+00  0.00000000E+00  0.00000000E+00
  0.00000000E+00  0.00000000E+00  0.00000000E+00
  0.00000000E+00  0.00000000E+00  0.00000000E+00
  0.00000000E+00  0.00000000E+00  0.00000000E+00
  0.00000000E+00  0.00000000E+00  0.00000000E+00
  0.00000000E+00  0.00000000E+00  0.00000000E+00
  0.00000000E+00  0.00000000E+00  0.00000000E+00
  0.00000000E+00  0.00000000E+00  0.00000000E+00
  0.00000000E+00  0.00000000E+00  0.00000000E+00
  0.00000000E+00  0.00000000E+00  0.00000000E+00
  0.00000000E+00  0.00000000E+00  0.00000000E+00
  0.00000000E+00  0.00000000E+00  0.00000000E+00
  0.00000000E+00  0.00000000E+00  0.00000000E+00
  0.00000000E+00  0.00000000E+00  0.00000000E+00
  0.00000000E+00  0.00000000E+00  0.00000000E+00
  0.00000000E+00  0.00000000E+00  0.00000000E+00
  0.00000000E+00  0.00000000E+00  0.00000000E+00
  0.00000000E+00  0.00000000E+00  0.00000000E+00
  0.00000000E+00  0.00000000E+00  0.00000000E+00
  0.00000000E+00  0.00000000E+00  0.00000000E+00
  0.00000000E+00  0.00000000E+00  0.00000000E+00
  0.00000000E+00  0.00000000E+00  0.00000000E+00
  0.00000000E+00  0.00000000E+00  0.00000000E+00
  0.00000000E+00  0.00000000E+00  0.00000000E+00
  0.00000000E+00  0.00000000E+00  0.00000000E+00
  0.00000000E+00  0.00000000E+00  0.00000000E+00
  0.00000000E+00  0.00000000E+00  0.00000000E+00
  0.00000000E+00  0.00000000E+00  0.00000000E+00
  0.00000000E+00  0.00000000E+00  0.00000000E+00
  0.00000000E+00  0.00000000E+00  0.00000000E+00
  0.00000000E+00  0.00000000E+00  0.00000000E+00
  0.00000000E+00  0.00000000E+00  0.00000000E+00
  0.00000000E+00  0.00000000E+00  0.00000000E+00
  0.00000000E+00  0.00000000E+00  0.00000000E+00
  0.00000000E+00  0.00000000E+00  0.00000000E+00
  0.00000000E+00  0.00000000E+00  0.00000000E+00
  0.00000000E+00  0.00000000E+00  0.00000000E+00
  0.00000000E+00  0.00000000E+00  0.00000000E+00
  0.00000000E+00  0.00000000E+00  0.00000000E+00
  0.00000000E+00  0.00000000E+00  0.00000000E+00
  0.00000000E+00  0.00000000E+00  0.00000000E+00
  0.00000000E+00  0.00000000E+00  0.00000000E+00
  0.00000000E+00  0.00000000E+00  0.00000000E+00
  0.00000000E+00  0.00000000E+00  0.00000000E+00
  0.00000000E+00  0.00000000E+00  0.00000000E+00
  0.00000000E+00  0.00000000E+00  0.00000000E+00
  0.00000000E+00  0.00000000E+00  0.00000000E+00
  0.00000000E+00  0.00000000E+00  0.00000000E+00
  0.00000000E+00  0.00000000E+00  0.00000000E+00
  0.00000000E+00  0.00000000E+00  0.00000000E+00
  0.00000000E+00  0.00000000E+00  0.00000000E+00
  0.00000000E+00  0.00000000E+00  0.00000000E+00
  0.00000000E+00  0.00000000E+00  0.00000000E+00
  0.00000000E+00  0.00000000E+00  0.00000000E+00
  0.00000000E+00  0.00000000E+00  0.00000000E+00
  0.00000000E+00  0.00000000E+00  0.00000000E+00
  0.00000000E+00  0.00000000E+00  0.00000000E+00
  0.00000000E+00  0.00000000E+00  0.00000000E+00
  0.00000000E+00  0.00000000E+00  0.00000000E+00
  0.00000000E+00  0.00000000E+00  0.00000000E+00
  0.00000000E+00  0.00000000E+00  0.00000000E+00
  0.00000000E+00  0.00000000E+00  0.00000000E+00
  0.00000000E+00  0.00000000E+00  0.00000000E+00
  0.00000000E+00  0.00000000E+00  0.00000000E+00
  0.00000000E+00  0.00000000E+00  0.00000000E+00
  0.00000000E+00  0.00000000E+00  0.00000000E+00
  0.00000000E+00  0.00000000E+00  0.00000000E+00
  0.00000000E+00  0.00000000E+00  0.00000000E+00
  0.00000000E+00  0.00000000E+00  0.00000000E+00
  0.00000000E+00  0.00000000E+00  0.00000000E+00
