"C194 N13 H14 Co1 O8"                   
   1.00000000000000     
    22.2206325530999997    0.0000000000000000    0.0000000000000000
   -11.1090385444000006   19.2315711056000005    0.0000000000000000
    -0.2110376687000000    0.0693042926000000   25.7151489837000007
   C    N    H    Co   O 
   194    13    14     1     8
Direct
  0.9998580262252190  0.0000538814029198  0.0532669448080085
  0.0369281391044538  0.0741673091036503  0.0523773613547789
  0.9998879102876828  0.1112349302523512  0.0523110391820580
  0.0369443811509669  0.1853359044581637  0.0508924324516897
  0.9999069609820950  0.2224290466330459  0.0505387834915467
  0.0368838884145504  0.2964427066224857  0.0483524395475072
  0.9998321984285283  0.3335029853826654  0.0476448745733080
  0.0368047306353745  0.4075048356045343  0.0455304919258168
  0.9997898637119320  0.4445305968671320  0.0458416795198460
  0.0368327516032707  0.5185938598918298  0.0459108549202014
  0.9997823856370402  0.5555915234717190  0.0473893451299929
  0.0367991718862228  0.6295522173124013  0.0493273713052531
  0.9997454710821430  0.6665773403357562  0.0507809511673543
  0.0368111477256079  0.7406355125914885  0.0525445638767508
  0.9997877152701875  0.7776981379094678  0.0531971968638487
  0.0368801734853932  0.8518112476522646  0.0537856627879094
  0.9998398702415514  0.8888926024012349  0.0537457400719816
  0.0369122731919092  0.9629701846443766  0.0533988182197120
  0.1109837890425283  0.0000243794366810  0.0522473339155383
  0.1480076062713636  0.0741079041693169  0.0503189991916955
  0.1109952620549350  0.1112161821002147  0.0505478875733303
  0.1479753332460874  0.1852340380248663  0.0483677497347230
  0.1109652300748181  0.2223479377083066  0.0488464455224431
  0.1479538863077750  0.2964103876950972  0.0465700111770886
  0.1109203180702139  0.3334768053984263  0.0463219101682029
  0.1478939674757029  0.4075145532660542  0.0437477697182800
  0.1108359827539758  0.4445600152715983  0.0436778232589674
  0.1478625862991194  0.5186045913267208  0.0430652063130381
  0.1108227351938069  0.5556458465470300  0.0449773046927788
  0.1478956096465396  0.6296466442369635  0.0469347844221062
  0.1108907502196175  0.6666251261872276  0.0494613210554817
  0.1479578627404550  0.7406799013844108  0.0514219678810690
  0.1109263938873681  0.7777420110809530  0.0527808259377807
  0.1479762343127078  0.8518001239181316  0.0532968633457997
  0.1109472632535073  0.8888925472887408  0.0534562151844113
  0.1479982959686197  0.9629612698440937  0.0523424153955006
  0.2220467780693625  0.0000213703880121  0.0510601306460714
  0.2590328399057071  0.0740189592257110  0.0487456534828539
  0.2219904475202625  0.1111140024552100  0.0479754020816401
  0.2589794816744018  0.1851633104394139  0.0455623283778905
  0.2219551396662354  0.2222290027864631  0.0456674072107219
  0.2589448176000531  0.2962924294467086  0.0439846504523445
  0.2219708231426765  0.3334217219112077  0.0442872831751728
  0.2589347749420625  0.4074335171447672  0.0425019970760019
  0.2219158547701596  0.4445441995923076  0.0420917124571076
  0.2589850206038165  0.5186559053483961  0.0413176162344655
  0.2219692012027323  0.5557047790233298  0.0421671387059490
  0.2590634181905997  0.6297653808985544  0.0440259583973983
  0.2220153797098661  0.6667327472021185  0.0467594731825827
  0.2590565409505530  0.7406926735094572  0.0495578094426747
  0.2220197175742697  0.7777444173695116  0.0514941913882154
  0.2590883874691485  0.8518345791069279  0.0526879245725169
  0.2220635360806469  0.8889011386840835  0.0529756090356202
  0.2591084973128517  0.9629963781837745  0.0520670068656770
  0.3331357685190071  0.0000481308011189  0.0517226394920201
  0.3701531460698249  0.0740952625869227  0.0498363295895601
  0.3331012519216543  0.1111010031518092  0.0478462027558777
  0.3700991425925011  0.1851414893353791  0.0453902413825347
  0.3330123531770539  0.2221924863263069  0.0440719257998197
  0.3700452947790183  0.2962254180086745  0.0427611699171280
  0.3329801805585717  0.3333079452561094  0.0428006835629873
  0.3700275169013665  0.4074145819545976  0.0424807443321598
  0.3330351897092569  0.4444990247855074  0.0419778925159946
  0.3701478660397157  0.5186562243125508  0.0416365085102868
  0.3330919153134175  0.5557271839435316  0.0414766426303501
  0.3701791868211757  0.6297483499792236  0.0430084900917649
  0.3331155040219329  0.6667693176701803  0.0446875709350181
  0.3701960569993048  0.7407559781700570  0.0478696238391194
  0.3331752185556027  0.7777667290499153  0.0500274487737684
  0.3702449247680022  0.8518447763906707  0.0520164319791334
  0.3331943994512727  0.8889204212417994  0.0527763623806266
  0.3702015022308345  0.9629829179058902  0.0526964989405698
  0.4442978705573850  0.0000541984039160  0.0526207841503989
  0.4813259838192323  0.0741501499171164  0.0513216111224253
  0.4442354143064904  0.1111892876886102  0.0495717053544240
  0.4812258713555195  0.1851896226694549  0.0469535668773133
  0.4441462058366383  0.2222133699385793  0.0448525330656580
  0.4812095850043789  0.2962769846797215  0.0426054403461791
  0.4441544130993620  0.3332941140441505  0.0420457607563662
  0.4812742428429644  0.4073966964670461  0.0418351061122735
  0.4442074563548459  0.4444812838702390  0.0426266057884988
  0.4812988697070963  0.5186202453930662  0.0426209032868456
  0.4442090482924357  0.5556943842378956  0.0422339707932196
  0.4813098637366764  0.6297776490496929  0.0427516197547817
  0.4442628551139549  0.6667675036087530  0.0438798587903761
  0.4813637690760189  0.7408277260027631  0.0462599460912685
  0.4443304639601209  0.7778278682349438  0.0485131064198114
  0.4813717307630156  0.8518447383980785  0.0507356850495526
  0.4443082607006303  0.8888897226388366  0.0522086032605031
  0.4813556822774174  0.9629952155409569  0.0528303792972480
  0.5554509749517749  0.0000675981969707  0.0525711310647665
  0.5924505918239547  0.0741268836384776  0.0519837039173652
  0.5553764152424421  0.1112018306754052  0.0508890401796904
  0.5924007137733227  0.1852668082920061  0.0484616588937286
  0.5553381594618401  0.2222811063234573  0.0461563032848815
  0.5923712942333665  0.2962992686862407  0.0430909781352895
  0.5552912734968629  0.3333409984667739  0.0417541754051030
  0.5923700080724217  0.4073916256243848  0.0407931695432779
  0.5553268874407422  0.4444674891486642  0.0411873299497287
  0.5924313042731839  0.5185959065748378  0.0418273924508981
  0.5554439420867894  0.5556692585857022  0.0423775009113854
  0.5924928125786195  0.6297813718621157  0.0427873611440575
  0.5554226541799494  0.6668341345771793  0.0431307388651732
  0.5924747762129527  0.7408668024837084  0.0443887697180827
  0.5554227031449912  0.7778964439259539  0.0462749053097085
  0.5924699187101794  0.8519419359341995  0.0483873475397729
  0.5554533084913160  0.8889333086920530  0.0505487831425526
  0.5925026360107637  0.9630001035407432  0.0518193024733051
  0.6665269336326745  0.0000477248716066  0.0515583670836790
  0.7035732150028835  0.0741421064606200  0.0519493203769983
  0.6665396182019450  0.1112073079913145  0.0515740461781178
  0.7035778383928672  0.1852977658275066  0.0499908164317091
  0.6665113405032912  0.2223525115398388  0.0479318408969149
  0.7035095156114295  0.2963322999378732  0.0451909783441096
  0.6664207455485354  0.3333389635943718  0.0426542538366164
  0.7035037378078357  0.4074287605518521  0.0416311434549854
  0.6664780521114295  0.4444861695929987  0.0411113040912099
  0.7035510541530883  0.5185708648983081  0.0425732967414945
  0.6665371391813011  0.5556655774423760  0.0427661553124850
  0.7035310064084470  0.6296700699571076  0.0445401874419957
  0.6665472433425137  0.6668007724561491  0.0438308501815428
  0.7035764280957508  0.7408603325886460  0.0452090588699789
  0.6665366233050847  0.7779084558083653  0.0451954119889919
  0.7035804249075852  0.8519716191315041  0.0473336663811210
  0.6665494097659419  0.8890421380046973  0.0484359622414061
  0.7035721197507172  0.9630254627862271  0.0503645399549413
  0.7776335171059969  0.0000898393488669  0.0511049636749306
  0.8146827531923222  0.0741443601789769  0.0519985971129060
  0.7776580970291960  0.1112373243573757  0.0518541327338653
  0.8146848400731770  0.1852866019948252  0.0510797689229960
  0.7776299704510734  0.2223583062685321  0.0497564630034901
  0.8146612649913720  0.2964188981278824  0.0478678701585409
  0.7776178382700181  0.3334215462520618  0.0455980387763333
  0.8146798282216210  0.4074670286850335  0.0443802615689108
  0.7776135607011696  0.4445220105086065  0.0430783010453766
  0.8146492360018271  0.5185475409078819  0.0446619475777368
  0.7775726685580366  0.5555714794602267  0.0448530617166227
  0.8145823922093172  0.6295875566414608  0.0476177362371715
  0.7775601625371777  0.6666664130777278  0.0472484795113886
  0.8145980314255254  0.7407333105383813  0.0491850038405488
  0.7775964771910751  0.7778515890653921  0.0479685505732732
  0.8146180055429397  0.8518738796526932  0.0498870528857367
  0.7776154237563091  0.8889922440337372  0.0492997142257465
  0.8146484766113034  0.9630388385719257  0.0510288552654359
  0.8887211924387373  0.0000846156911862  0.0524431681723172
  0.9257867893534382  0.0741483529262510  0.0526769464985435
  0.8887465483992401  0.1112295625261694  0.0522858548386367
  0.9258101024662295  0.1853299351449067  0.0514998699412672
  0.8887793921593072  0.2223915572116866  0.0506886582947246
  0.9258080456528432  0.2964552843015369  0.0489451432614985
  0.8887441440628550  0.3334948005937619  0.0477740019298736
  0.9257440113687778  0.4074817185552604  0.0464572049385126
  0.8886836616526992  0.4445094603526911  0.0456317397854917
  0.9257262507773376  0.5185561924076723  0.0465530866943595
  0.8886900890706642  0.5555693498622816  0.0468439693708689
  0.9256932083239704  0.6295420679448185  0.0494178322553225
  0.8886454962477188  0.6665952803621522  0.0500039901506781
  0.9256720685692130  0.7406129939723129  0.0520389770115628
  0.8886348311022516  0.7777181786563219  0.0517263199242493
  0.9257270997653393  0.8518202472501315  0.0528965001042323
  0.8886892023673099  0.8888961775490429  0.0521969441302801
  0.9257694149610103  0.9630084633203708  0.0529563338416139
  0.2662593003268370  0.1366867753713095  0.1750597723620189
  0.3362058510386916  0.1890746428152781  0.1728749140451171
  0.3491301486444698  0.2574443347209581  0.1718658344337882
  0.2944874125144992  0.2726882473959336  0.1721809616507244
  0.2246307949251332  0.2193482779164668  0.1740213894095461
  0.2107181357039565  0.1506264138147557  0.1758527065465216
  0.3274377866659961  0.3483775017132942  0.1704295887690037
  0.4139309141768877  0.3241333323919662  0.1702464204939247
  0.3221838180906289  0.4499278876034651  0.1698741593795887
  0.4008999518048029  0.5640618700456912  0.1703728145231054
  0.2831017888420106  0.4868373493299316  0.1698196296586474
  0.3327064223858542  0.5586395582609782  0.1700540725538175
  0.3123879169626136  0.6092112618481096  0.1697959983479507
  0.2412986841477434  0.5863881908509967  0.1698523779797227
  0.1925031894837161  0.5143317527543161  0.1698480187091604
  0.2117274529368913  0.4630893806211134  0.1695057240868607
  0.5341716508802534  0.3890010388887717  0.1695658536747828
  0.6128851273510350  0.5027423644412181  0.1704319893944728
  0.6223240621975208  0.3433802908217771  0.1684477403189319
  0.6934215264168273  0.3660017458138327  0.1688787143604529
  0.7423459777145069  0.4379521510486271  0.1703413350134895
  0.7232774207038801  0.4893578179691431  0.1710098569081353
  0.6520008284911754  0.4657792178526421  0.1705464111182593
  0.6022435210384458  0.3940506824988148  0.1695741514537659
  0.6073713819165221  0.6041258657892143  0.1712094683531760
  0.5211407068090423  0.6290982361213437  0.1714639304767474
  0.6405260613992922  0.6796693349706615  0.1722578907898651
  0.7106911611945534  0.7324559824520236  0.1725355950127678
  0.7254550086446727  0.8013960203283190  0.1732909294110740
  0.6704153956873427  0.8161309292674517  0.1735631756297806
  0.6001482990063920  0.7642922903309994  0.1731404375493142
  0.5862663224407569  0.6955392681998944  0.1724990178804191
  0.3994333214761880  0.3781070911340123  0.1691750117039845
  0.2910805143250244  0.3810680996133442  0.1704970478739298
  0.3933226009416799  0.4977298551862717  0.1698561416389452
  0.4756017143557116  0.3282678847684366  0.1701872834689766
  0.5419807073799774  0.4552243736916637  0.1694621521371857
  0.6438861747296727  0.5715422506094612  0.1712616656301478
  0.5352091490915711  0.5745722765370616  0.1705895491493834
  0.4594195538813466  0.6249294584818941  0.1714254318186761
  0.1173098679040976  0.4920025153398058  0.1694675629841882
  0.6878890183207460  0.8899517728231814  0.1730721517145994
  0.8174861884755629  0.4601221864132796  0.1702908465016932
  0.2497193817710226  0.0630815867066516  0.1758211212029508
  0.4675488796839318  0.4725741590132557  0.2488989191095072
  0.3775278225393848  0.1763300132265542  0.1717800067401924
  0.1825194093597560  0.2311675586958941  0.1736823768274220
  0.1577490440516982  0.1069026376829427  0.1771581030692033
  0.3509938740098164  0.6644663279788432  0.1689757638694616
  0.2220603944835347  0.6228677464947694  0.1691419418882703
  0.1725493361338764  0.4081395179365614  0.1687566314788356
  0.5836451217348468  0.2882028247683195  0.1664973938599559
  0.7125385278604810  0.3294675355359615  0.1672492176872353
  0.7625650553434014  0.5442825745147246  0.1714841948684978
  0.7522263537833425  0.7198469750315155  0.1713911495929068
  0.7786584893359745  0.8446933754489407  0.1727621338166259
  0.5593107936650625  0.7777633318332562  0.1727060728515468
  0.5088324719695407  0.5201487910077134  0.2602080889783096
  0.4254362129715190  0.4774137253056168  0.2598915205393979
  0.4674004744503080  0.4765571665172104  0.1736926040785889
  0.1010542304765067  0.5383187862087269  0.1700699294900190
  0.0747768706198073  0.4282555242781783  0.1682037210045024
  0.6388947179995981  0.9023292595025154  0.1743069378655093
  0.7506890091078660  0.9356416524379583  0.1708397024499249
  0.8601527290126469  0.5238643768754230  0.1716797076136771
  0.8336413091789154  0.4137821696472841  0.1684282294909920
  0.1873009166623802  0.0168455563187990  0.1794379005872528
  0.2991060023506549  0.0515286614219193  0.1723195021939645
 
  0.00000000E+00  0.00000000E+00  0.00000000E+00
  0.00000000E+00  0.00000000E+00  0.00000000E+00
  0.00000000E+00  0.00000000E+00  0.00000000E+00
  0.00000000E+00  0.00000000E+00  0.00000000E+00
  0.00000000E+00  0.00000000E+00  0.00000000E+00
  0.00000000E+00  0.00000000E+00  0.00000000E+00
  0.00000000E+00  0.00000000E+00  0.00000000E+00
  0.00000000E+00  0.00000000E+00  0.00000000E+00
  0.00000000E+00  0.00000000E+00  0.00000000E+00
  0.00000000E+00  0.00000000E+00  0.00000000E+00
  0.00000000E+00  0.00000000E+00  0.00000000E+00
  0.00000000E+00  0.00000000E+00  0.00000000E+00
  0.00000000E+00  0.00000000E+00  0.00000000E+00
  0.00000000E+00  0.00000000E+00  0.00000000E+00
  0.00000000E+00  0.00000000E+00  0.00000000E+00
  0.00000000E+00  0.00000000E+00  0.00000000E+00
  0.00000000E+00  0.00000000E+00  0.00000000E+00
  0.00000000E+00  0.00000000E+00  0.00000000E+00
  0.00000000E+00  0.00000000E+00  0.00000000E+00
  0.00000000E+00  0.00000000E+00  0.00000000E+00
  0.00000000E+00  0.00000000E+00  0.00000000E+00
  0.00000000E+00  0.00000000E+00  0.00000000E+00
  0.00000000E+00  0.00000000E+00  0.00000000E+00
  0.00000000E+00  0.00000000E+00  0.00000000E+00
  0.00000000E+00  0.00000000E+00  0.00000000E+00
  0.00000000E+00  0.00000000E+00  0.00000000E+00
  0.00000000E+00  0.00000000E+00  0.00000000E+00
  0.00000000E+00  0.00000000E+00  0.00000000E+00
  0.00000000E+00  0.00000000E+00  0.00000000E+00
  0.00000000E+00  0.00000000E+00  0.00000000E+00
  0.00000000E+00  0.00000000E+00  0.00000000E+00
  0.00000000E+00  0.00000000E+00  0.00000000E+00
  0.00000000E+00  0.00000000E+00  0.00000000E+00
  0.00000000E+00  0.00000000E+00  0.00000000E+00
  0.00000000E+00  0.00000000E+00  0.00000000E+00
  0.00000000E+00  0.00000000E+00  0.00000000E+00
  0.00000000E+00  0.00000000E+00  0.00000000E+00
  0.00000000E+00  0.00000000E+00  0.00000000E+00
  0.00000000E+00  0.00000000E+00  0.00000000E+00
  0.00000000E+00  0.00000000E+00  0.00000000E+00
  0.00000000E+00  0.00000000E+00  0.00000000E+00
  0.00000000E+00  0.00000000E+00  0.00000000E+00
  0.00000000E+00  0.00000000E+00  0.00000000E+00
  0.00000000E+00  0.00000000E+00  0.00000000E+00
  0.00000000E+00  0.00000000E+00  0.00000000E+00
  0.00000000E+00  0.00000000E+00  0.00000000E+00
  0.00000000E+00  0.00000000E+00  0.00000000E+00
  0.00000000E+00  0.00000000E+00  0.00000000E+00
  0.00000000E+00  0.00000000E+00  0.00000000E+00
  0.00000000E+00  0.00000000E+00  0.00000000E+00
  0.00000000E+00  0.00000000E+00  0.00000000E+00
  0.00000000E+00  0.00000000E+00  0.00000000E+00
  0.00000000E+00  0.00000000E+00  0.00000000E+00
  0.00000000E+00  0.00000000E+00  0.00000000E+00
  0.00000000E+00  0.00000000E+00  0.00000000E+00
  0.00000000E+00  0.00000000E+00  0.00000000E+00
  0.00000000E+00  0.00000000E+00  0.00000000E+00
  0.00000000E+00  0.00000000E+00  0.00000000E+00
  0.00000000E+00  0.00000000E+00  0.00000000E+00
  0.00000000E+00  0.00000000E+00  0.00000000E+00
  0.00000000E+00  0.00000000E+00  0.00000000E+00
  0.00000000E+00  0.00000000E+00  0.00000000E+00
  0.00000000E+00  0.00000000E+00  0.00000000E+00
  0.00000000E+00  0.00000000E+00  0.00000000E+00
  0.00000000E+00  0.00000000E+00  0.00000000E+00
  0.00000000E+00  0.00000000E+00  0.00000000E+00
  0.00000000E+00  0.00000000E+00  0.00000000E+00
  0.00000000E+00  0.00000000E+00  0.00000000E+00
  0.00000000E+00  0.00000000E+00  0.00000000E+00
  0.00000000E+00  0.00000000E+00  0.00000000E+00
  0.00000000E+00  0.00000000E+00  0.00000000E+00
  0.00000000E+00  0.00000000E+00  0.00000000E+00
  0.00000000E+00  0.00000000E+00  0.00000000E+00
  0.00000000E+00  0.00000000E+00  0.00000000E+00
  0.00000000E+00  0.00000000E+00  0.00000000E+00
  0.00000000E+00  0.00000000E+00  0.00000000E+00
  0.00000000E+00  0.00000000E+00  0.00000000E+00
  0.00000000E+00  0.00000000E+00  0.00000000E+00
  0.00000000E+00  0.00000000E+00  0.00000000E+00
  0.00000000E+00  0.00000000E+00  0.00000000E+00
  0.00000000E+00  0.00000000E+00  0.00000000E+00
  0.00000000E+00  0.00000000E+00  0.00000000E+00
  0.00000000E+00  0.00000000E+00  0.00000000E+00
  0.00000000E+00  0.00000000E+00  0.00000000E+00
  0.00000000E+00  0.00000000E+00  0.00000000E+00
  0.00000000E+00  0.00000000E+00  0.00000000E+00
  0.00000000E+00  0.00000000E+00  0.00000000E+00
  0.00000000E+00  0.00000000E+00  0.00000000E+00
  0.00000000E+00  0.00000000E+00  0.00000000E+00
  0.00000000E+00  0.00000000E+00  0.00000000E+00
  0.00000000E+00  0.00000000E+00  0.00000000E+00
  0.00000000E+00  0.00000000E+00  0.00000000E+00
  0.00000000E+00  0.00000000E+00  0.00000000E+00
  0.00000000E+00  0.00000000E+00  0.00000000E+00
  0.00000000E+00  0.00000000E+00  0.00000000E+00
  0.00000000E+00  0.00000000E+00  0.00000000E+00
  0.00000000E+00  0.00000000E+00  0.00000000E+00
  0.00000000E+00  0.00000000E+00  0.00000000E+00
  0.00000000E+00  0.00000000E+00  0.00000000E+00
  0.00000000E+00  0.00000000E+00  0.00000000E+00
  0.00000000E+00  0.00000000E+00  0.00000000E+00
  0.00000000E+00  0.00000000E+00  0.00000000E+00
  0.00000000E+00  0.00000000E+00  0.00000000E+00
  0.00000000E+00  0.00000000E+00  0.00000000E+00
  0.00000000E+00  0.00000000E+00  0.00000000E+00
  0.00000000E+00  0.00000000E+00  0.00000000E+00
  0.00000000E+00  0.00000000E+00  0.00000000E+00
  0.00000000E+00  0.00000000E+00  0.00000000E+00
  0.00000000E+00  0.00000000E+00  0.00000000E+00
  0.00000000E+00  0.00000000E+00  0.00000000E+00
  0.00000000E+00  0.00000000E+00  0.00000000E+00
  0.00000000E+00  0.00000000E+00  0.00000000E+00
  0.00000000E+00  0.00000000E+00  0.00000000E+00
  0.00000000E+00  0.00000000E+00  0.00000000E+00
  0.00000000E+00  0.00000000E+00  0.00000000E+00
  0.00000000E+00  0.00000000E+00  0.00000000E+00
  0.00000000E+00  0.00000000E+00  0.00000000E+00
  0.00000000E+00  0.00000000E+00  0.00000000E+00
  0.00000000E+00  0.00000000E+00  0.00000000E+00
  0.00000000E+00  0.00000000E+00  0.00000000E+00
  0.00000000E+00  0.00000000E+00  0.00000000E+00
  0.00000000E+00  0.00000000E+00  0.00000000E+00
  0.00000000E+00  0.00000000E+00  0.00000000E+00
  0.00000000E+00  0.00000000E+00  0.00000000E+00
  0.00000000E+00  0.00000000E+00  0.00000000E+00
  0.00000000E+00  0.00000000E+00  0.00000000E+00
  0.00000000E+00  0.00000000E+00  0.00000000E+00
  0.00000000E+00  0.00000000E+00  0.00000000E+00
  0.00000000E+00  0.00000000E+00  0.00000000E+00
  0.00000000E+00  0.00000000E+00  0.00000000E+00
  0.00000000E+00  0.00000000E+00  0.00000000E+00
  0.00000000E+00  0.00000000E+00  0.00000000E+00
  0.00000000E+00  0.00000000E+00  0.00000000E+00
  0.00000000E+00  0.00000000E+00  0.00000000E+00
  0.00000000E+00  0.00000000E+00  0.00000000E+00
  0.00000000E+00  0.00000000E+00  0.00000000E+00
  0.00000000E+00  0.00000000E+00  0.00000000E+00
  0.00000000E+00  0.00000000E+00  0.00000000E+00
  0.00000000E+00  0.00000000E+00  0.00000000E+00
  0.00000000E+00  0.00000000E+00  0.00000000E+00
  0.00000000E+00  0.00000000E+00  0.00000000E+00
  0.00000000E+00  0.00000000E+00  0.00000000E+00
  0.00000000E+00  0.00000000E+00  0.00000000E+00
  0.00000000E+00  0.00000000E+00  0.00000000E+00
  0.00000000E+00  0.00000000E+00  0.00000000E+00
  0.00000000E+00  0.00000000E+00  0.00000000E+00
  0.00000000E+00  0.00000000E+00  0.00000000E+00
  0.00000000E+00  0.00000000E+00  0.00000000E+00
  0.00000000E+00  0.00000000E+00  0.00000000E+00
  0.00000000E+00  0.00000000E+00  0.00000000E+00
  0.00000000E+00  0.00000000E+00  0.00000000E+00
  0.00000000E+00  0.00000000E+00  0.00000000E+00
  0.00000000E+00  0.00000000E+00  0.00000000E+00
  0.00000000E+00  0.00000000E+00  0.00000000E+00
  0.00000000E+00  0.00000000E+00  0.00000000E+00
  0.00000000E+00  0.00000000E+00  0.00000000E+00
  0.00000000E+00  0.00000000E+00  0.00000000E+00
  0.00000000E+00  0.00000000E+00  0.00000000E+00
  0.00000000E+00  0.00000000E+00  0.00000000E+00
  0.00000000E+00  0.00000000E+00  0.00000000E+00
  0.00000000E+00  0.00000000E+00  0.00000000E+00
  0.00000000E+00  0.00000000E+00  0.00000000E+00
  0.00000000E+00  0.00000000E+00  0.00000000E+00
  0.00000000E+00  0.00000000E+00  0.00000000E+00
  0.00000000E+00  0.00000000E+00  0.00000000E+00
  0.00000000E+00  0.00000000E+00  0.00000000E+00
  0.00000000E+00  0.00000000E+00  0.00000000E+00
  0.00000000E+00  0.00000000E+00  0.00000000E+00
  0.00000000E+00  0.00000000E+00  0.00000000E+00
  0.00000000E+00  0.00000000E+00  0.00000000E+00
  0.00000000E+00  0.00000000E+00  0.00000000E+00
  0.00000000E+00  0.00000000E+00  0.00000000E+00
  0.00000000E+00  0.00000000E+00  0.00000000E+00
  0.00000000E+00  0.00000000E+00  0.00000000E+00
  0.00000000E+00  0.00000000E+00  0.00000000E+00
  0.00000000E+00  0.00000000E+00  0.00000000E+00
  0.00000000E+00  0.00000000E+00  0.00000000E+00
  0.00000000E+00  0.00000000E+00  0.00000000E+00
  0.00000000E+00  0.00000000E+00  0.00000000E+00
  0.00000000E+00  0.00000000E+00  0.00000000E+00
  0.00000000E+00  0.00000000E+00  0.00000000E+00
  0.00000000E+00  0.00000000E+00  0.00000000E+00
  0.00000000E+00  0.00000000E+00  0.00000000E+00
  0.00000000E+00  0.00000000E+00  0.00000000E+00
  0.00000000E+00  0.00000000E+00  0.00000000E+00
  0.00000000E+00  0.00000000E+00  0.00000000E+00
  0.00000000E+00  0.00000000E+00  0.00000000E+00
  0.00000000E+00  0.00000000E+00  0.00000000E+00
  0.00000000E+00  0.00000000E+00  0.00000000E+00
  0.00000000E+00  0.00000000E+00  0.00000000E+00
  0.00000000E+00  0.00000000E+00  0.00000000E+00
  0.00000000E+00  0.00000000E+00  0.00000000E+00
  0.00000000E+00  0.00000000E+00  0.00000000E+00
  0.00000000E+00  0.00000000E+00  0.00000000E+00
  0.00000000E+00  0.00000000E+00  0.00000000E+00
  0.00000000E+00  0.00000000E+00  0.00000000E+00
  0.00000000E+00  0.00000000E+00  0.00000000E+00
  0.00000000E+00  0.00000000E+00  0.00000000E+00
  0.00000000E+00  0.00000000E+00  0.00000000E+00
  0.00000000E+00  0.00000000E+00  0.00000000E+00
  0.00000000E+00  0.00000000E+00  0.00000000E+00
  0.00000000E+00  0.00000000E+00  0.00000000E+00
  0.00000000E+00  0.00000000E+00  0.00000000E+00
  0.00000000E+00  0.00000000E+00  0.00000000E+00
  0.00000000E+00  0.00000000E+00  0.00000000E+00
  0.00000000E+00  0.00000000E+00  0.00000000E+00
  0.00000000E+00  0.00000000E+00  0.00000000E+00
  0.00000000E+00  0.00000000E+00  0.00000000E+00
  0.00000000E+00  0.00000000E+00  0.00000000E+00
  0.00000000E+00  0.00000000E+00  0.00000000E+00
  0.00000000E+00  0.00000000E+00  0.00000000E+00
  0.00000000E+00  0.00000000E+00  0.00000000E+00
  0.00000000E+00  0.00000000E+00  0.00000000E+00
  0.00000000E+00  0.00000000E+00  0.00000000E+00
  0.00000000E+00  0.00000000E+00  0.00000000E+00
  0.00000000E+00  0.00000000E+00  0.00000000E+00
  0.00000000E+00  0.00000000E+00  0.00000000E+00
  0.00000000E+00  0.00000000E+00  0.00000000E+00
  0.00000000E+00  0.00000000E+00  0.00000000E+00
  0.00000000E+00  0.00000000E+00  0.00000000E+00
  0.00000000E+00  0.00000000E+00  0.00000000E+00
  0.00000000E+00  0.00000000E+00  0.00000000E+00
  0.00000000E+00  0.00000000E+00  0.00000000E+00
  0.00000000E+00  0.00000000E+00  0.00000000E+00
  0.00000000E+00  0.00000000E+00  0.00000000E+00
  0.00000000E+00  0.00000000E+00  0.00000000E+00
  0.00000000E+00  0.00000000E+00  0.00000000E+00
  0.00000000E+00  0.00000000E+00  0.00000000E+00
  0.00000000E+00  0.00000000E+00  0.00000000E+00
  0.00000000E+00  0.00000000E+00  0.00000000E+00
