"C194 N8 F16 Co1"                       
   1.00000000000000     
    22.1940670012999988    0.0000000000000000    0.0000000000000000
   -11.0972607337000007   19.2221838880000000    0.0000000000000000
    -0.0021661604000000    0.0282654945000000   25.3389066430000014
   C    N    F    Co
   194     8    16     1
Direct
  0.9999965683702854  0.0000039845025910  0.0605111357669230
  0.0370619269088834  0.0741027567655408  0.0604702978714258
  0.0000250808411622  0.1111343603041846  0.0604092901002033
  0.0370834301972351  0.1852279005492363  0.0600985909279288
  0.0000421865173692  0.2222600319548320  0.0598542414917063
  0.0370904902196116  0.2963352507549857  0.0589967883170672
  0.0000370964298781  0.3333576784442869  0.0588616310195320
  0.0370853422249553  0.4074392810863401  0.0579127375312538
  0.0000255106866902  0.4444418318100034  0.0583750922733444
  0.0370796049943038  0.5185316394832213  0.0581449283958264
  0.9999858273296383  0.5555228578236182  0.0588930223737449
  0.0370305937348760  0.6295985771081973  0.0592267419815755
  0.9999552971968200  0.6666092680275923  0.0597639072202298
  0.0370153219621585  0.7407155449159930  0.0600685321565990
  0.9999614402076347  0.7777380528802738  0.0603064069161761
  0.0370287875408124  0.8518473697743829  0.0604017064861182
  0.9999782044041581  0.8888776094765873  0.0604789408738924
  0.0370425669292658  0.9629718144336366  0.0604922793226734
  0.1111254799716619  0.0000329690895953  0.0604376246020806
  0.1481740576041091  0.0741249665504071  0.0602839188842452
  0.1111370078170282  0.1111626847385310  0.0603070280583680
  0.1481639242185153  0.1852307927834431  0.0599629736199674
  0.1111439877572451  0.2222758783682295  0.0597756908672764
  0.1481720818472354  0.2963370449910627  0.0588106070617229
  0.1111496846127622  0.3333518597057790  0.0580815158084889
  0.1481633736999868  0.4074055843765692  0.0564444281337728
  0.1111395892493832  0.4444421237445582  0.0563752118714262
  0.1481705223772920  0.5185209670500939  0.0555865197452690
  0.1111319371466024  0.5555480057237503  0.0569187864890779
  0.1481811149871675  0.6296324743629356  0.0573261639659250
  0.1111255769142119  0.6666245953961081  0.0587231014084395
  0.1481649153443385  0.7407265157525771  0.0592931150937943
  0.1111106483384106  0.7777584199931056  0.0599288029118696
  0.1481515691484461  0.8518541551945091  0.0601749717176929
  0.1111092048465849  0.8888984867461005  0.0603612309049026
  0.1481699096657749  0.9630063436402168  0.0604160367974558
  0.2222420571875077  0.0000474711496850  0.0603837673934891
  0.2592852773648815  0.0741204673554137  0.0601793083073758
  0.2222448323679131  0.1111631406660791  0.0600388925794491
  0.2592965311780659  0.1852526102529808  0.0596988085327368
  0.2222450041938231  0.2222857362725392  0.0596067076956643
  0.2592508509044933  0.2963458690665064  0.0591322127427247
  0.2222312852251278  0.3333640039591899  0.0584824016034204
  0.2592472444665077  0.4073994345192702  0.0572642356201030
  0.2222351430732488  0.4444234190878333  0.0558663910947530
  0.2593082979246972  0.5185326015853349  0.0550617713719888
  0.2222553752640906  0.5555598130956483  0.0548226811801271
  0.2593209972268369  0.6296765893916643  0.0555848937349026
  0.2222544998752696  0.6666683892947916  0.0567864616983087
  0.2592781201044758  0.7407084003577467  0.0581551699102079
  0.2222333997460524  0.7777452634549036  0.0591369407288411
  0.2592675185986906  0.8518488256827652  0.0598215380076965
  0.2222328848771014  0.8888994322384320  0.0601755228292120
  0.2592767499324609  0.9630076384768671  0.0603786062872871
  0.3333416914668064  0.0000325242436290  0.0603729309457819
  0.3703868580747596  0.0741298532558687  0.0601853544149193
  0.3333552973388620  0.1111688421337718  0.0600046412946611
  0.3704013423167822  0.1852448172819763  0.0594608658314968
  0.3333475284718688  0.2222748890117003  0.0594116360467609
  0.3703826396637311  0.2963479363076047  0.0591703474096192
  0.3333253293164802  0.3333621195908378  0.0591633722096816
  0.3703367159902484  0.4074159909094490  0.0590268931473901
  0.3333294089757288  0.4444387090705959  0.0579049165818120
  0.3703971498259193  0.5185310196234738  0.0574537062174656
  0.3333627236739716  0.5555554157228215  0.0560449575521318
  0.3704213816534505  0.6296380832210176  0.0566592233790288
  0.3333696018348462  0.6666647748180523  0.0564798384306329
  0.3703923213350251  0.7407107231388252  0.0580715184762468
  0.3333501165450485  0.7777310360811498  0.0586198204112023
  0.3703772451023752  0.8518172603935810  0.0596529996597326
  0.3333481445652993  0.8888776152851108  0.0599704545639455
  0.3703690504306820  0.9629709269505398  0.0602832901221717
  0.4444478088824155  0.0000070066107938  0.0602219027997108
  0.4814782430368396  0.0741076976046244  0.0598599049580599
  0.4444505867523603  0.1111646073618004  0.0597460220959860
  0.4814703256284218  0.1852279402512877  0.0587816670411243
  0.4444423375717221  0.2222565822941078  0.0587548604770944
  0.4814778474892307  0.2963181707577220  0.0578769211264145
  0.4444474742489462  0.3333465803368938  0.0585198273833498
  0.4814848042131743  0.4073815037077466  0.0586756466558427
  0.4444240182303645  0.4444094120986293  0.0595296859667584
  0.4814858043047963  0.5185336328667560  0.0594280063669075
  0.4444378563054556  0.5555413739946076  0.0585597839263343
  0.4814755534002373  0.6295985760368197  0.0585268481925993
  0.4444396305526936  0.6666152637533713  0.0580860252494375
  0.4814713017371091  0.7406788949506193  0.0590036098793618
  0.4444465014985113  0.7777066631818741  0.0591315309266420
  0.4814696621141294  0.8517798277969959  0.0599600469473387
  0.4444407655538427  0.8888360251245686  0.0600465568365536
  0.4814718243226750  0.9629416241837063  0.0602498338667701
  0.5555474892092960  0.9999756668543327  0.0602229971325414
  0.5925693225253141  0.0740698982809249  0.0597773744631098
  0.5555396727229009  0.1111280318036165  0.0593605290655574
  0.5925665472881718  0.1852131108405715  0.0581761113454249
  0.5555176642768487  0.2222241210015170  0.0575986815047145
  0.5925355408501218  0.2962679217129605  0.0561084618738050
  0.5554887735637877  0.3333017903540281  0.0564872673872472
  0.5925484289633687  0.4073855130782675  0.0562198456606637
  0.5555236297610406  0.4444040311206905  0.0576671426811899
  0.5925829093971444  0.5184964180247320  0.0582424406609192
  0.5555741949717330  0.5555182171884496  0.0591189206699312
  0.5925816640543644  0.6295696584480481  0.0592244239114734
  0.5555241265630428  0.6665828729838665  0.0591614169195012
  0.5925639065994162  0.7406644105492362  0.0593950249051858
  0.5555190593491730  0.7776919851009936  0.0595459806367842
  0.5925692351793330  0.8517727133478701  0.0600401373302830
  0.5555356420908595  0.8888133860768619  0.0602591574327391
  0.5925748116515521  0.9629099274142163  0.0603479988948123
  0.6666409267305440  0.9999387172354588  0.0603013394933072
  0.7036843756949906  0.0740518365244682  0.0600561633765651
  0.6666495164908781  0.1111022253668068  0.0596154470788761
  0.7036786370309329  0.1852025035391094  0.0588332546226411
  0.6666331832269847  0.2222335427414066  0.0577234317804880
  0.7036612973527809  0.2962785117028659  0.0564049528864103
  0.6665901620760621  0.3332741879342223  0.0553461477722976
  0.7036635750312641  0.4074036942819390  0.0550541293017091
  0.6666160134412138  0.4444255305955451  0.0555504846371235
  0.7036812067777234  0.5185202176433918  0.0567002583335920
  0.6666533280473885  0.5555317523268997  0.0579207300429090
  0.7036739099441149  0.6295695971048900  0.0590095247599578
  0.6666464305463506  0.6665838859580759  0.0593273844480251
  0.7036677845940318  0.7406602958292510  0.0596562981793554
  0.6666188564410831  0.7776888652272191  0.0596317894374039
  0.7036724480400949  0.8517797676400320  0.0599484238388115
  0.6666317843101481  0.8888201134748570  0.0601163538868121
  0.7036723225329382  0.9628936197766507  0.0603070504269141
  0.7777467163354501  0.9999398607940222  0.0603401895663467
  0.8148038889909088  0.0740482786067673  0.0602808185256620
  0.7777640892134983  0.1110953657441698  0.0600605036060600
  0.8148014133844725  0.1851914534662029  0.0597500028768607
  0.7777470227491179  0.2222237176583448  0.0590375979015292
  0.8147882465500444  0.2963251143999486  0.0584469782325030
  0.7777370895163926  0.3333221712218375  0.0570708510181106
  0.8147844469085115  0.4074021942375552  0.0569599134711254
  0.7777374675017015  0.4444360104471130  0.0559756814193122
  0.8147622280474849  0.5185002466752451  0.0571482046534300
  0.7777297350209622  0.5555290402428099  0.0573942334158772
  0.8147525815887420  0.6295860456867359  0.0589188973950527
  0.7777311617458693  0.6666002239824778  0.0594155165267196
  0.8147674684488635  0.7406668907400586  0.0600762932229060
  0.7777459849066233  0.7777138995473791  0.0600434309698059
  0.8147783933353239  0.8517843944530057  0.0602649083627611
  0.7777412516900810  0.8888192179599486  0.0601995839145033
  0.8147894231805850  0.9629114765485625  0.0603697813024837
  0.8888726245412215  0.9999731465548365  0.0604516285158709
  0.9259336426961937  0.0740666755272201  0.0604187553751316
  0.8888855494727963  0.1110991822547689  0.0603007491870997
  0.9259511964076026  0.1852095420190665  0.0600853476831986
  0.8888968638889807  0.2222326998563133  0.0598202993303687
  0.9259531934218614  0.2963339313444138  0.0593965377687766
  0.8888780116667121  0.3333464132380684  0.0589459163274526
  0.9259258034032172  0.4074231696265969  0.0587033339309002
  0.8888337978377052  0.4444163541085189  0.0582137643189071
  0.9258881229341966  0.5185045177155203  0.0586766020816967
  0.8888252020018044  0.5555053706189668  0.0585310663938259
  0.9258682442763586  0.6295831103735310  0.0594454527099728
  0.8888160499798445  0.6666059637813859  0.0596397439710898
  0.9258660771053400  0.7406810041025338  0.0602261134748545
  0.8888265733089966  0.7777144645443386  0.0603445497541344
  0.9258892422690579  0.8518119221234883  0.0604812478143728
  0.8888533917714483  0.8888430667788612  0.0604579003045487
  0.9259177182266143  0.9629405862234250  0.0604911884558703
  0.2665497580141647  0.1333360506356343  0.1959350993758946
  0.3359516545037096  0.1873073029004360  0.1935384023152480
  0.3497383099418911  0.2560794452679360  0.1915919613438817
  0.2943557362992237  0.2706761537025670  0.1916202329789627
  0.2251441166741088  0.2166435429050040  0.1938761555075530
  0.2115865774929944  0.1478797903155780  0.1962316523535748
  0.3264644735831297  0.3462841700121118  0.1893557344903982
  0.4139622955986084  0.3233126464495015  0.1894379375655149
  0.3188403216060536  0.4461922374296350  0.1870907337763938
  0.3957747653421393  0.5605400558187839  0.1874957689450127
  0.2781937493223481  0.4814166009367753  0.1858821432062001
  0.3268766011477098  0.5537902448094982  0.1861689371303328
  0.3041743711101716  0.6023227641305695  0.1847678268785700
  0.2325042245072311  0.5779863920750330  0.1832529795491880
  0.1841090115513495  0.5060979435430113  0.1831002115382532
  0.2066647021711248  0.4573462504367001  0.1842945478657825
  0.5337158343212636  0.3899604021960243  0.1874457864916579
  0.6106080450046178  0.5043171554393453  0.1883370824159343
  0.6255385167381320  0.3484082158049873  0.1846091015455968
  0.6972494147258246  0.3728573102534085  0.1837361291706827
  0.7455683742306292  0.4447531353129435  0.1845715320436625
  0.7228859636234830  0.4933902878021428  0.1862690891161023
  0.6513190022192390  0.4691756786048131  0.1872061312095710
  0.6026660181814449  0.3967818903027620  0.1864711727833281
  0.6029727250839301  0.6042122213735581  0.1904740286504278
  0.5154916865895558  0.6271898153915600  0.1900189315848380
  0.6350859918318150  0.6798257422352521  0.1925030597451638
  0.7043041872403819  0.7338638650618705  0.1942358981571104
  0.7179076639450486  0.8026782361532128  0.1955320004846186
  0.6629614293395747  0.8172470621735570  0.1949114203666298
  0.5935399572641842  0.7632471446876110  0.1932175792115842
  0.5797154563301348  0.6944341801108536  0.1921113046484848
  0.3987252987121224  0.3770886977013745  0.1886716979136764
  0.2887489710575011  0.3774021657544040  0.1879384968359901
  0.3897209246190769  0.4948867728129756  0.1877512279780333
  0.4760593861959634  0.3283688823503397  0.1881931030677180
  0.5397277606459667  0.4555870069769412  0.1882027272230928
  0.6406742331102180  0.5730831259404567  0.1895053890372793
  0.5307127362157189  0.5734083472260352  0.1894026987459796
  0.4534000379554328  0.6221287045888886  0.1886839271631189
  0.2513078390153183  0.0660395329803336  0.1976276866513160
  0.3869027714825251  0.1705126109465098  0.1928909082100319
  0.1705065754759971  0.2279590773309650  0.1936001577666957
  0.1451041620317000  0.0941914848674088  0.1982569108324626
  0.3485868837183332  0.6719848669705897  0.1841495990560773
  0.2086736889210741  0.6235437894472469  0.1809530059790205
  0.1151976593942550  0.4846907024758451  0.1809873429572235
  0.1582146328201333  0.3887625075933769  0.1831652565860082
  0.5812458118432815  0.2787597251597376  0.1828456538076608
  0.7211521442122830  0.3273834088500394  0.1810073138231658
  0.8145337196496243  0.4663311855823764  0.1828220002736956
  0.7713034881311529  0.5620139466806222  0.1862601459253668
  0.7589293006842794  0.7225268025464544  0.1941428779869554
  0.7844286647976872  0.8563828251278878  0.1966867436045803
  0.6782552504792818  0.8845891932773569  0.1954155074729371
  0.5425874059231717  0.7800211748326760  0.1921229464861014
  0.4647256015425896  0.4752375612545805  0.1879866839343052
 
  0.00000000E+00  0.00000000E+00  0.00000000E+00
  0.00000000E+00  0.00000000E+00  0.00000000E+00
  0.00000000E+00  0.00000000E+00  0.00000000E+00
  0.00000000E+00  0.00000000E+00  0.00000000E+00
  0.00000000E+00  0.00000000E+00  0.00000000E+00
  0.00000000E+00  0.00000000E+00  0.00000000E+00
  0.00000000E+00  0.00000000E+00  0.00000000E+00
  0.00000000E+00  0.00000000E+00  0.00000000E+00
  0.00000000E+00  0.00000000E+00  0.00000000E+00
  0.00000000E+00  0.00000000E+00  0.00000000E+00
  0.00000000E+00  0.00000000E+00  0.00000000E+00
  0.00000000E+00  0.00000000E+00  0.00000000E+00
  0.00000000E+00  0.00000000E+00  0.00000000E+00
  0.00000000E+00  0.00000000E+00  0.00000000E+00
  0.00000000E+00  0.00000000E+00  0.00000000E+00
  0.00000000E+00  0.00000000E+00  0.00000000E+00
  0.00000000E+00  0.00000000E+00  0.00000000E+00
  0.00000000E+00  0.00000000E+00  0.00000000E+00
  0.00000000E+00  0.00000000E+00  0.00000000E+00
  0.00000000E+00  0.00000000E+00  0.00000000E+00
  0.00000000E+00  0.00000000E+00  0.00000000E+00
  0.00000000E+00  0.00000000E+00  0.00000000E+00
  0.00000000E+00  0.00000000E+00  0.00000000E+00
  0.00000000E+00  0.00000000E+00  0.00000000E+00
  0.00000000E+00  0.00000000E+00  0.00000000E+00
  0.00000000E+00  0.00000000E+00  0.00000000E+00
  0.00000000E+00  0.00000000E+00  0.00000000E+00
  0.00000000E+00  0.00000000E+00  0.00000000E+00
  0.00000000E+00  0.00000000E+00  0.00000000E+00
  0.00000000E+00  0.00000000E+00  0.00000000E+00
  0.00000000E+00  0.00000000E+00  0.00000000E+00
  0.00000000E+00  0.00000000E+00  0.00000000E+00
  0.00000000E+00  0.00000000E+00  0.00000000E+00
  0.00000000E+00  0.00000000E+00  0.00000000E+00
  0.00000000E+00  0.00000000E+00  0.00000000E+00
  0.00000000E+00  0.00000000E+00  0.00000000E+00
  0.00000000E+00  0.00000000E+00  0.00000000E+00
  0.00000000E+00  0.00000000E+00  0.00000000E+00
  0.00000000E+00  0.00000000E+00  0.00000000E+00
  0.00000000E+00  0.00000000E+00  0.00000000E+00
  0.00000000E+00  0.00000000E+00  0.00000000E+00
  0.00000000E+00  0.00000000E+00  0.00000000E+00
  0.00000000E+00  0.00000000E+00  0.00000000E+00
  0.00000000E+00  0.00000000E+00  0.00000000E+00
  0.00000000E+00  0.00000000E+00  0.00000000E+00
  0.00000000E+00  0.00000000E+00  0.00000000E+00
  0.00000000E+00  0.00000000E+00  0.00000000E+00
  0.00000000E+00  0.00000000E+00  0.00000000E+00
  0.00000000E+00  0.00000000E+00  0.00000000E+00
  0.00000000E+00  0.00000000E+00  0.00000000E+00
  0.00000000E+00  0.00000000E+00  0.00000000E+00
  0.00000000E+00  0.00000000E+00  0.00000000E+00
  0.00000000E+00  0.00000000E+00  0.00000000E+00
  0.00000000E+00  0.00000000E+00  0.00000000E+00
  0.00000000E+00  0.00000000E+00  0.00000000E+00
  0.00000000E+00  0.00000000E+00  0.00000000E+00
  0.00000000E+00  0.00000000E+00  0.00000000E+00
  0.00000000E+00  0.00000000E+00  0.00000000E+00
  0.00000000E+00  0.00000000E+00  0.00000000E+00
  0.00000000E+00  0.00000000E+00  0.00000000E+00
  0.00000000E+00  0.00000000E+00  0.00000000E+00
  0.00000000E+00  0.00000000E+00  0.00000000E+00
  0.00000000E+00  0.00000000E+00  0.00000000E+00
  0.00000000E+00  0.00000000E+00  0.00000000E+00
  0.00000000E+00  0.00000000E+00  0.00000000E+00
  0.00000000E+00  0.00000000E+00  0.00000000E+00
  0.00000000E+00  0.00000000E+00  0.00000000E+00
  0.00000000E+00  0.00000000E+00  0.00000000E+00
  0.00000000E+00  0.00000000E+00  0.00000000E+00
  0.00000000E+00  0.00000000E+00  0.00000000E+00
  0.00000000E+00  0.00000000E+00  0.00000000E+00
  0.00000000E+00  0.00000000E+00  0.00000000E+00
  0.00000000E+00  0.00000000E+00  0.00000000E+00
  0.00000000E+00  0.00000000E+00  0.00000000E+00
  0.00000000E+00  0.00000000E+00  0.00000000E+00
  0.00000000E+00  0.00000000E+00  0.00000000E+00
  0.00000000E+00  0.00000000E+00  0.00000000E+00
  0.00000000E+00  0.00000000E+00  0.00000000E+00
  0.00000000E+00  0.00000000E+00  0.00000000E+00
  0.00000000E+00  0.00000000E+00  0.00000000E+00
  0.00000000E+00  0.00000000E+00  0.00000000E+00
  0.00000000E+00  0.00000000E+00  0.00000000E+00
  0.00000000E+00  0.00000000E+00  0.00000000E+00
  0.00000000E+00  0.00000000E+00  0.00000000E+00
  0.00000000E+00  0.00000000E+00  0.00000000E+00
  0.00000000E+00  0.00000000E+00  0.00000000E+00
  0.00000000E+00  0.00000000E+00  0.00000000E+00
  0.00000000E+00  0.00000000E+00  0.00000000E+00
  0.00000000E+00  0.00000000E+00  0.00000000E+00
  0.00000000E+00  0.00000000E+00  0.00000000E+00
  0.00000000E+00  0.00000000E+00  0.00000000E+00
  0.00000000E+00  0.00000000E+00  0.00000000E+00
  0.00000000E+00  0.00000000E+00  0.00000000E+00
  0.00000000E+00  0.00000000E+00  0.00000000E+00
  0.00000000E+00  0.00000000E+00  0.00000000E+00
  0.00000000E+00  0.00000000E+00  0.00000000E+00
  0.00000000E+00  0.00000000E+00  0.00000000E+00
  0.00000000E+00  0.00000000E+00  0.00000000E+00
  0.00000000E+00  0.00000000E+00  0.00000000E+00
  0.00000000E+00  0.00000000E+00  0.00000000E+00
  0.00000000E+00  0.00000000E+00  0.00000000E+00
  0.00000000E+00  0.00000000E+00  0.00000000E+00
  0.00000000E+00  0.00000000E+00  0.00000000E+00
  0.00000000E+00  0.00000000E+00  0.00000000E+00
  0.00000000E+00  0.00000000E+00  0.00000000E+00
  0.00000000E+00  0.00000000E+00  0.00000000E+00
  0.00000000E+00  0.00000000E+00  0.00000000E+00
  0.00000000E+00  0.00000000E+00  0.00000000E+00
  0.00000000E+00  0.00000000E+00  0.00000000E+00
  0.00000000E+00  0.00000000E+00  0.00000000E+00
  0.00000000E+00  0.00000000E+00  0.00000000E+00
  0.00000000E+00  0.00000000E+00  0.00000000E+00
  0.00000000E+00  0.00000000E+00  0.00000000E+00
  0.00000000E+00  0.00000000E+00  0.00000000E+00
  0.00000000E+00  0.00000000E+00  0.00000000E+00
  0.00000000E+00  0.00000000E+00  0.00000000E+00
  0.00000000E+00  0.00000000E+00  0.00000000E+00
  0.00000000E+00  0.00000000E+00  0.00000000E+00
  0.00000000E+00  0.00000000E+00  0.00000000E+00
  0.00000000E+00  0.00000000E+00  0.00000000E+00
  0.00000000E+00  0.00000000E+00  0.00000000E+00
  0.00000000E+00  0.00000000E+00  0.00000000E+00
  0.00000000E+00  0.00000000E+00  0.00000000E+00
  0.00000000E+00  0.00000000E+00  0.00000000E+00
  0.00000000E+00  0.00000000E+00  0.00000000E+00
  0.00000000E+00  0.00000000E+00  0.00000000E+00
  0.00000000E+00  0.00000000E+00  0.00000000E+00
  0.00000000E+00  0.00000000E+00  0.00000000E+00
  0.00000000E+00  0.00000000E+00  0.00000000E+00
  0.00000000E+00  0.00000000E+00  0.00000000E+00
  0.00000000E+00  0.00000000E+00  0.00000000E+00
  0.00000000E+00  0.00000000E+00  0.00000000E+00
  0.00000000E+00  0.00000000E+00  0.00000000E+00
  0.00000000E+00  0.00000000E+00  0.00000000E+00
  0.00000000E+00  0.00000000E+00  0.00000000E+00
  0.00000000E+00  0.00000000E+00  0.00000000E+00
  0.00000000E+00  0.00000000E+00  0.00000000E+00
  0.00000000E+00  0.00000000E+00  0.00000000E+00
  0.00000000E+00  0.00000000E+00  0.00000000E+00
  0.00000000E+00  0.00000000E+00  0.00000000E+00
  0.00000000E+00  0.00000000E+00  0.00000000E+00
  0.00000000E+00  0.00000000E+00  0.00000000E+00
  0.00000000E+00  0.00000000E+00  0.00000000E+00
  0.00000000E+00  0.00000000E+00  0.00000000E+00
  0.00000000E+00  0.00000000E+00  0.00000000E+00
  0.00000000E+00  0.00000000E+00  0.00000000E+00
  0.00000000E+00  0.00000000E+00  0.00000000E+00
  0.00000000E+00  0.00000000E+00  0.00000000E+00
  0.00000000E+00  0.00000000E+00  0.00000000E+00
  0.00000000E+00  0.00000000E+00  0.00000000E+00
  0.00000000E+00  0.00000000E+00  0.00000000E+00
  0.00000000E+00  0.00000000E+00  0.00000000E+00
  0.00000000E+00  0.00000000E+00  0.00000000E+00
  0.00000000E+00  0.00000000E+00  0.00000000E+00
  0.00000000E+00  0.00000000E+00  0.00000000E+00
  0.00000000E+00  0.00000000E+00  0.00000000E+00
  0.00000000E+00  0.00000000E+00  0.00000000E+00
  0.00000000E+00  0.00000000E+00  0.00000000E+00
  0.00000000E+00  0.00000000E+00  0.00000000E+00
  0.00000000E+00  0.00000000E+00  0.00000000E+00
  0.00000000E+00  0.00000000E+00  0.00000000E+00
  0.00000000E+00  0.00000000E+00  0.00000000E+00
  0.00000000E+00  0.00000000E+00  0.00000000E+00
  0.00000000E+00  0.00000000E+00  0.00000000E+00
  0.00000000E+00  0.00000000E+00  0.00000000E+00
  0.00000000E+00  0.00000000E+00  0.00000000E+00
  0.00000000E+00  0.00000000E+00  0.00000000E+00
  0.00000000E+00  0.00000000E+00  0.00000000E+00
  0.00000000E+00  0.00000000E+00  0.00000000E+00
  0.00000000E+00  0.00000000E+00  0.00000000E+00
  0.00000000E+00  0.00000000E+00  0.00000000E+00
  0.00000000E+00  0.00000000E+00  0.00000000E+00
  0.00000000E+00  0.00000000E+00  0.00000000E+00
  0.00000000E+00  0.00000000E+00  0.00000000E+00
  0.00000000E+00  0.00000000E+00  0.00000000E+00
  0.00000000E+00  0.00000000E+00  0.00000000E+00
  0.00000000E+00  0.00000000E+00  0.00000000E+00
  0.00000000E+00  0.00000000E+00  0.00000000E+00
  0.00000000E+00  0.00000000E+00  0.00000000E+00
  0.00000000E+00  0.00000000E+00  0.00000000E+00
  0.00000000E+00  0.00000000E+00  0.00000000E+00
  0.00000000E+00  0.00000000E+00  0.00000000E+00
  0.00000000E+00  0.00000000E+00  0.00000000E+00
  0.00000000E+00  0.00000000E+00  0.00000000E+00
  0.00000000E+00  0.00000000E+00  0.00000000E+00
  0.00000000E+00  0.00000000E+00  0.00000000E+00
  0.00000000E+00  0.00000000E+00  0.00000000E+00
  0.00000000E+00  0.00000000E+00  0.00000000E+00
  0.00000000E+00  0.00000000E+00  0.00000000E+00
  0.00000000E+00  0.00000000E+00  0.00000000E+00
  0.00000000E+00  0.00000000E+00  0.00000000E+00
  0.00000000E+00  0.00000000E+00  0.00000000E+00
  0.00000000E+00  0.00000000E+00  0.00000000E+00
  0.00000000E+00  0.00000000E+00  0.00000000E+00
  0.00000000E+00  0.00000000E+00  0.00000000E+00
  0.00000000E+00  0.00000000E+00  0.00000000E+00
  0.00000000E+00  0.00000000E+00  0.00000000E+00
  0.00000000E+00  0.00000000E+00  0.00000000E+00
  0.00000000E+00  0.00000000E+00  0.00000000E+00
  0.00000000E+00  0.00000000E+00  0.00000000E+00
  0.00000000E+00  0.00000000E+00  0.00000000E+00
  0.00000000E+00  0.00000000E+00  0.00000000E+00
  0.00000000E+00  0.00000000E+00  0.00000000E+00
  0.00000000E+00  0.00000000E+00  0.00000000E+00
  0.00000000E+00  0.00000000E+00  0.00000000E+00
  0.00000000E+00  0.00000000E+00  0.00000000E+00
  0.00000000E+00  0.00000000E+00  0.00000000E+00
  0.00000000E+00  0.00000000E+00  0.00000000E+00
  0.00000000E+00  0.00000000E+00  0.00000000E+00
  0.00000000E+00  0.00000000E+00  0.00000000E+00
  0.00000000E+00  0.00000000E+00  0.00000000E+00
  0.00000000E+00  0.00000000E+00  0.00000000E+00
  0.00000000E+00  0.00000000E+00  0.00000000E+00
  0.00000000E+00  0.00000000E+00  0.00000000E+00
  0.00000000E+00  0.00000000E+00  0.00000000E+00
  0.00000000E+00  0.00000000E+00  0.00000000E+00
  0.00000000E+00  0.00000000E+00  0.00000000E+00
  0.00000000E+00  0.00000000E+00  0.00000000E+00
  0.00000000E+00  0.00000000E+00  0.00000000E+00
