"C194 N12 H20 Co1"                      
   1.00000000000000     
    22.2289619446000017    0.0000000000000000    0.0000000000000000
   -11.1148176724999992   19.2515058872999987    0.0000000000000000
     0.0485117891000000    0.1056203705000000   25.4533479137000000
   C    N    H    Co
   194    12    20     1
Direct
  0.0000377727150962  0.9999242156566552  0.0480563761937134
  0.0371950388807107  0.0740837818794873  0.0466997111764229
  0.0001791205944244  0.1111346104776985  0.0472962881411760
  0.0372938707078418  0.1852617722268022  0.0452871044988186
  0.0002432050757406  0.2222817377163295  0.0457000432639063
  0.0372938387173960  0.2963669176249937  0.0428801454103720
  0.0001744066505225  0.3333343889012568  0.0429735004898646
  0.0372072550769289  0.4074109862859387  0.0403051621601023
  0.0000834654825326  0.4443743055972504  0.0413116554719082
  0.0371202423530264  0.5184748263275978  0.0410085027421019
  0.0000050654537844  0.5554363107244100  0.0426937081035490
  0.0370189173319986  0.6294860410126191  0.0443998340641301
  0.9998591696497883  0.6664136390452740  0.0457330410673151
  0.0368919259004912  0.7404851717551466  0.0475865192491511
  0.9997883151654250  0.7774777578498941  0.0479985154299882
  0.0368923426802326  0.8516226074367026  0.0486967881787450
  0.9998709557491310  0.8886766110579956  0.0485154353365616
  0.0370196590998120  0.9628588523505144  0.0479646307212391
  0.1111440139491009  0.9999673240362554  0.0461007960609265
  0.1482140173062589  0.0740359132851296  0.0429682164068055
  0.1112452642472022  0.1111139719951098  0.0435176099979557
  0.1482904601008741  0.1851830021177037  0.0404741960848796
  0.1113262713295384  0.2222607293888643  0.0416953385210519
  0.1483264365958448  0.2963362258756987  0.0386304793870522
  0.1113018089690385  0.3333841687608299  0.0391951384326958
  0.1482586581434333  0.4074410222227627  0.0358023734936452
  0.1112247739717134  0.4444477237968698  0.0366919608994323
  0.1482511510921114  0.5185687732560211  0.0354992978467266
  0.1112421596838615  0.5555284641139124  0.0388731416238812
  0.1482431472350285  0.6295964528349529  0.0407646129564867
  0.1111411781425460  0.6664920567926842  0.0441723845636020
  0.1481351853519612  0.7405491446660619  0.0462640815625335
  0.1110253738695448  0.7775134096680745  0.0479299655211491
  0.1480819908872988  0.8516454843774994  0.0483489609983749
  0.1110394794304739  0.8887021007873841  0.0483414211270485
  0.1481297240922004  0.9628427989400237  0.0464940269298282
  0.2222259794872841  0.9999209253378183  0.0445716208887390
  0.2592219705399259  0.0739798037219046  0.0409621777799600
  0.2222519558493232  0.1110364658661993  0.0396173115795975
  0.2592398580507265  0.1850634447582920  0.0362984430805326
  0.2222404259383950  0.2221279799085067  0.0365269532747163
  0.2592243465119566  0.2962050512164112  0.0342045939441604
  0.2222825383714948  0.3333054273086447  0.0349100751281739
  0.2592552543144322  0.4074105486635915  0.0324933501919560
  0.2222791862159710  0.4444737959743179  0.0326376946961418
  0.2593095852496177  0.5186062412240702  0.0314916632431093
  0.2222892155378702  0.5556356347536564  0.0332930607193020
  0.2593373119943863  0.6297343193340765  0.0352502476379541
  0.2223555358552787  0.6666193251600632  0.0394463666268905
  0.2593166475200590  0.7406025644405503  0.0429102149004024
  0.2222450721602272  0.7775576201710805  0.0459385079912877
  0.2592556662976762  0.8516614485328589  0.0474628789820670
  0.2221885776400896  0.8887046555396765  0.0478728686780343
  0.2592292525755227  0.9628624801523742  0.0464143252713782
  0.3333456510539889  0.9999503721738989  0.0461405956223331
  0.3703444383419594  0.0740819196918210  0.0434376864023420
  0.3333111848626373  0.1110583565117125  0.0401187809611088
  0.3703119205261913  0.1850790781371856  0.0366381694790974
  0.3332663463299568  0.2220648084981107  0.0344546584832131
  0.3703408529362875  0.2961613434664017  0.0325384312842374
  0.3333111193781377  0.3332364084938177  0.0323172234951130
  0.3703373493552320  0.4073440310793330  0.0314743108334312
  0.3333619576322064  0.4444577160589134  0.0311843042600373
  0.3704429844759503  0.5186134343755739  0.0306495861941016
  0.3333769384190362  0.5556497068912307  0.0309215331251025
  0.3704781877873415  0.6297507483174556  0.0326346173529828
  0.3334169187923450  0.6667131127683916  0.0353096591009887
  0.3704186042047724  0.7406253004854406  0.0394687012817272
  0.3334030425360694  0.7775987691256034  0.0429662322818771
  0.3703863567509273  0.8516402728958710  0.0459001515679773
  0.3333555730682036  0.8887011399130031  0.0473813071973552
  0.3703723693027428  0.9628673671593191  0.0474643351139790
  0.4444544908864501  0.9999219170334186  0.0473941750540092
  0.4814537458976886  0.0740708149662481  0.0458094896537204
  0.4444619541566794  0.1111322347000012  0.0432582048986561
  0.4814589806502809  0.1851674027839110  0.0395427117046481
  0.4444368142653090  0.2221159860015618  0.0362058842779405
  0.4815280126690524  0.2961564749991581  0.0330346773676737
  0.4444651737922811  0.3331809171075335  0.0317390692166413
  0.4815634629573822  0.4072612539249931  0.0309893528178904
  0.4445058999167557  0.4443757675895696  0.0313264557937529
  0.4816087819525308  0.5185678355239247  0.0311861623028094
  0.4445467028555470  0.5556562221628667  0.0309398899988622
  0.4816331088513834  0.6297336567143503  0.0317149592336818
  0.4445371104278308  0.6667077541733306  0.0333185987271634
  0.4815844352984868  0.7407077286125201  0.0366189882442356
  0.4445374381941818  0.7776208170624557  0.0400344516789488
  0.4814966380061207  0.8516292308331614  0.0436366111094415
  0.4444816841553063  0.8886683266872950  0.0460953438423104
  0.4814677411382249  0.9628073562749435  0.0474568407353715
  0.5555473481612978  0.9998588587871353  0.0474347181935286
  0.5925652082904165  0.0740237823075702  0.0471283887844720
  0.5555507174860210  0.1110992684262726  0.0455143409394978
  0.5925614768366856  0.1851638945398832  0.0424340271950641
  0.5555814344908043  0.2221723651593237  0.0389199407083609
  0.5926286922617550  0.2961372978896222  0.0348415575538894
  0.5555895810116525  0.3331319042682708  0.0323287758705817
  0.5927108986755698  0.4072583989090219  0.0308344491230628
  0.5556709617524618  0.4443147827429570  0.0305798290218320
  0.5927482533976018  0.5184710536636103  0.0310635723397752
  0.5557769124070475  0.5555876007233209  0.0312219968951837
  0.5927930992030426  0.6296773145835957  0.0320388191587213
  0.5557414768804065  0.6667336693203012  0.0323969270459941
  0.5927837075720461  0.7407955987268693  0.0344994781567465
  0.5557138689350438  0.7777313404036263  0.0369718195445117
  0.5926719146628940  0.8517218807474620  0.0405372069762819
  0.5556044908765472  0.8886779254365607  0.0437674653335804
  0.5925765859549301  0.9627836540085610  0.0462825185308020
  0.6666893140671277  0.9998648587645249  0.0465726804328810
  0.7037202885649307  0.0740127965293098  0.0477859214936061
  0.6666616070607532  0.1110611261503038  0.0471646735845397
  0.7036833459721237  0.1851737359518566  0.0454654613885808
  0.6666510946195885  0.2221637646460977  0.0423549009844351
  0.7036463468149066  0.2961841107845018  0.0389541285804356
  0.6667072487135073  0.3331296897004492  0.0348975110523639
  0.7037799497335087  0.4072575359880659  0.0333771900725068
  0.6667826592108739  0.4443070531477460  0.0316775045792212
  0.7037961762175939  0.5184204613493222  0.0330284173580253
  0.6668256836847917  0.5554937903293578  0.0325973551503296
  0.7037778799203451  0.6295698684086943  0.0349465225984247
  0.6668436945903906  0.6666757014926858  0.0340387555172583
  0.7038156185202880  0.7407304220105573  0.0364500801323828
  0.6668042200035487  0.7777776682725559  0.0363769450948936
  0.7037521537321965  0.8517585895099984  0.0398522786493984
  0.6667604964937865  0.8887954387166417  0.0413334444182070
  0.7037121286162744  0.9628227379647782  0.0448986199908319
  0.7777894962681700  0.9998859923869148  0.0467605473882386
  0.8148683279170683  0.0740187819213247  0.0483896876331329
  0.7778228446496342  0.1110638114706148  0.0482150754944399
  0.8148843675982818  0.1851989090827928  0.0475602740231338
  0.7777915191765743  0.2221764469217788  0.0457778064546304
  0.8148042135893121  0.2962504728372082  0.0436695198273327
  0.7777403043288231  0.3331979099444027  0.0403797615934423
  0.8147659537675267  0.4072907936071530  0.0388477968867917
  0.7777801603367180  0.4442937776216169  0.0358560861965742
  0.8147682342634326  0.5183649671484289  0.0374701387643626
  0.7777412129798407  0.5553910982039056  0.0365088785216514
  0.8146739411915647  0.6294186226199088  0.0397902063598892
  0.7776777486955879  0.6664876911101274  0.0388805081757226
  0.8146605113975767  0.7405384312744445  0.0417924903979028
  0.7777111722850023  0.7776281146445783  0.0404428574902127
  0.8147209102288997  0.8516479728655995  0.0435819197853604
  0.7777407906229996  0.8887236153224691  0.0432080541079571
  0.8147799132832958  0.9627712607500598  0.0463837691995224
  0.8888994813564182  0.9998691948150480  0.0481203630756397
  0.9260428382193240  0.0740457417037845  0.0485577970487228
  0.8890160506224163  0.1110948554069822  0.0486414062222948
  0.9261239857676173  0.1852400909416971  0.0476857083241100
  0.8890185536624031  0.2222277843438292  0.0471281916531510
  0.9260610290666023  0.2963079205823718  0.0451004024756756
  0.8889238889408091  0.3332499130426569  0.0438612323481422
  0.9259590302854761  0.4073241885090155  0.0423368550058711
  0.8888602218375752  0.4443092236875543  0.0410133990195050
  0.9258903249222357  0.5183963062653731  0.0417290391812415
  0.8887472332662227  0.5553553608552662  0.0411025309805808
  0.9257599979804496  0.6294102695525225  0.0437491703871800
  0.8886437284812203  0.6663858120801081  0.0435231838797918
  0.9256832658951026  0.7404542375700913  0.0460856860009926
  0.8886423652304813  0.7774897133678564  0.0454556348111979
  0.9257497189268094  0.8516046446682566  0.0473309347597706
  0.8887377796743294  0.8886570641293972  0.0467377821305064
  0.9258794680341751  0.9628050004477160  0.0481107198868287
  0.2699557194278839  0.1347147072428854  0.1652360812102742
  0.3394104270631644  0.1900216860900130  0.1649837393704061
  0.3507173482143102  0.2577078235419776  0.1638915679647042
  0.2954154306542591  0.2718377063934341  0.1633466255229905
  0.2262680560498822  0.2171390319748170  0.1640324193443305
  0.2141989276390035  0.1491944529115585  0.1650342344539126
  0.3266512612264023  0.3470042277075578  0.1617474433887551
  0.4147732917485030  0.3251059683943822  0.1622893588497476
  0.3188290261624900  0.4471889685564321  0.1610869373525148
  0.3953036557890783  0.5616811229830674  0.1611799561328127
  0.2781022048567863  0.4823751769425542  0.1615445254779360
  0.3265019156335924  0.5543325047558554  0.1614277771300721
  0.3035743763352201  0.6027798913753912  0.1609631418568540
  0.2321403501343156  0.5777335387461520  0.1606378740989101
  0.1829722799328408  0.5051020834024911  0.1607003059327923
  0.2064732840952459  0.4566072893792139  0.1613148225768128
  0.5349693760945300  0.3921582433447881  0.1614330435535010
  0.6114656119914414  0.5065611370456651  0.1617530135850629
  0.6264193743756863  0.3507891751354251  0.1614424758293254
  0.6978142263995579  0.3756385761219434  0.1615340370998339
  0.7470772345964605  0.4482306058429941  0.1619780340377304
  0.7237570472138515  0.4968904853385041  0.1625359676149500
  0.6521637371482285  0.4713079745729303  0.1623427563344961
  0.6036915374101994  0.3993812673377377  0.1618802949506417
  0.6035028574588281  0.6066627513233698  0.1623558840830270
  0.5155628589474901  0.6288825652528089  0.1622469716698021
  0.6348624582793221  0.6817753289382793  0.1640055967388108
  0.7041491432078431  0.7360464335916390  0.1650680720940230
  0.7167597697876218  0.8041582543312842  0.1657510074376916
  0.6613547967661404  0.8191331524501777  0.1652667846183959
  0.5916888553192763  0.7641979658970683  0.1647799556711931
  0.5797709603847707  0.6962422632764174  0.1639810662381080
  0.3991057979329611  0.3783693582479870  0.1611685355142640
  0.2890886922918128  0.3783960299367592  0.1611638127123811
  0.3895082142703359  0.4960596720379371  0.1607785443689025
  0.4771076815502298  0.3306307074380967  0.1618491043489101
  0.5407798560101398  0.4577611368203165  0.1610720684447031
  0.6411189998673521  0.5753049922707874  0.1620473562595990
  0.5311353909940806  0.5754875211399266  0.1613476818197057
  0.4531751872462522  0.6232498944103071  0.1616686890851255
  0.1118760039179136  0.4825879532597241  0.1614629007876118
  0.6765626978727113  0.8882762617213373  0.1667342222953039
  0.8181237515579909  0.4705868324730957  0.1631653356236598
  0.2554638119200519  0.0658400823270426  0.1671397173071227
  0.3829896878981032  0.1803636491122518  0.1649262159384861
  0.1832189663810269  0.2275526868013458  0.1629294441112847
  0.1608660654606808  0.1056109358055934  0.1647003449782005
  0.3407366719153941  0.6584300934356762  0.1600208403123133
  0.2128839937256544  0.6143585447333564  0.1592849266431955
  0.1698965697253101  0.4007581041405075  0.1609011775214526
  0.5891360938981265  0.2952009530029045  0.1601478764493010
  0.7169505560859548  0.3389235758231592  0.1601257390964435
  0.7604915443403044  0.5527082998206083  0.1624869550671590
  0.7468608494227595  0.7251021940498248  0.1644704983285408
  0.7702492377707983  0.8474790860880717  0.1656965471557044
  0.5484740876007379  0.7744038995738052  0.1641761054064617
  0.0806918862026222  0.4335531540980142  0.1477961721250622
  0.0988034546295751  0.5166290988050406  0.1456507792129003
  0.7240612030429716  0.9234590193377343  0.1519933045081103
  0.6385281759415662  0.8965028281754144  0.1523487206102416
  0.8313668954876263  0.4365327029826602  0.1477499190664275
  0.8496750143302592  0.5197037581421853  0.1494428636483462
  0.2084383916460695  0.0302378911608159  0.1522980804909224
  0.2942289946906627  0.0581728231966991  0.1535010605358096
  0.4651300402663239  0.4769463512670953  0.1599125806419437
 
  0.00000000E+00  0.00000000E+00  0.00000000E+00
  0.00000000E+00  0.00000000E+00  0.00000000E+00
  0.00000000E+00  0.00000000E+00  0.00000000E+00
  0.00000000E+00  0.00000000E+00  0.00000000E+00
  0.00000000E+00  0.00000000E+00  0.00000000E+00
  0.00000000E+00  0.00000000E+00  0.00000000E+00
  0.00000000E+00  0.00000000E+00  0.00000000E+00
  0.00000000E+00  0.00000000E+00  0.00000000E+00
  0.00000000E+00  0.00000000E+00  0.00000000E+00
  0.00000000E+00  0.00000000E+00  0.00000000E+00
  0.00000000E+00  0.00000000E+00  0.00000000E+00
  0.00000000E+00  0.00000000E+00  0.00000000E+00
  0.00000000E+00  0.00000000E+00  0.00000000E+00
  0.00000000E+00  0.00000000E+00  0.00000000E+00
  0.00000000E+00  0.00000000E+00  0.00000000E+00
  0.00000000E+00  0.00000000E+00  0.00000000E+00
  0.00000000E+00  0.00000000E+00  0.00000000E+00
  0.00000000E+00  0.00000000E+00  0.00000000E+00
  0.00000000E+00  0.00000000E+00  0.00000000E+00
  0.00000000E+00  0.00000000E+00  0.00000000E+00
  0.00000000E+00  0.00000000E+00  0.00000000E+00
  0.00000000E+00  0.00000000E+00  0.00000000E+00
  0.00000000E+00  0.00000000E+00  0.00000000E+00
  0.00000000E+00  0.00000000E+00  0.00000000E+00
  0.00000000E+00  0.00000000E+00  0.00000000E+00
  0.00000000E+00  0.00000000E+00  0.00000000E+00
  0.00000000E+00  0.00000000E+00  0.00000000E+00
  0.00000000E+00  0.00000000E+00  0.00000000E+00
  0.00000000E+00  0.00000000E+00  0.00000000E+00
  0.00000000E+00  0.00000000E+00  0.00000000E+00
  0.00000000E+00  0.00000000E+00  0.00000000E+00
  0.00000000E+00  0.00000000E+00  0.00000000E+00
  0.00000000E+00  0.00000000E+00  0.00000000E+00
  0.00000000E+00  0.00000000E+00  0.00000000E+00
  0.00000000E+00  0.00000000E+00  0.00000000E+00
  0.00000000E+00  0.00000000E+00  0.00000000E+00
  0.00000000E+00  0.00000000E+00  0.00000000E+00
  0.00000000E+00  0.00000000E+00  0.00000000E+00
  0.00000000E+00  0.00000000E+00  0.00000000E+00
  0.00000000E+00  0.00000000E+00  0.00000000E+00
  0.00000000E+00  0.00000000E+00  0.00000000E+00
  0.00000000E+00  0.00000000E+00  0.00000000E+00
  0.00000000E+00  0.00000000E+00  0.00000000E+00
  0.00000000E+00  0.00000000E+00  0.00000000E+00
  0.00000000E+00  0.00000000E+00  0.00000000E+00
  0.00000000E+00  0.00000000E+00  0.00000000E+00
  0.00000000E+00  0.00000000E+00  0.00000000E+00
  0.00000000E+00  0.00000000E+00  0.00000000E+00
  0.00000000E+00  0.00000000E+00  0.00000000E+00
  0.00000000E+00  0.00000000E+00  0.00000000E+00
  0.00000000E+00  0.00000000E+00  0.00000000E+00
  0.00000000E+00  0.00000000E+00  0.00000000E+00
  0.00000000E+00  0.00000000E+00  0.00000000E+00
  0.00000000E+00  0.00000000E+00  0.00000000E+00
  0.00000000E+00  0.00000000E+00  0.00000000E+00
  0.00000000E+00  0.00000000E+00  0.00000000E+00
  0.00000000E+00  0.00000000E+00  0.00000000E+00
  0.00000000E+00  0.00000000E+00  0.00000000E+00
  0.00000000E+00  0.00000000E+00  0.00000000E+00
  0.00000000E+00  0.00000000E+00  0.00000000E+00
  0.00000000E+00  0.00000000E+00  0.00000000E+00
  0.00000000E+00  0.00000000E+00  0.00000000E+00
  0.00000000E+00  0.00000000E+00  0.00000000E+00
  0.00000000E+00  0.00000000E+00  0.00000000E+00
  0.00000000E+00  0.00000000E+00  0.00000000E+00
  0.00000000E+00  0.00000000E+00  0.00000000E+00
  0.00000000E+00  0.00000000E+00  0.00000000E+00
  0.00000000E+00  0.00000000E+00  0.00000000E+00
  0.00000000E+00  0.00000000E+00  0.00000000E+00
  0.00000000E+00  0.00000000E+00  0.00000000E+00
  0.00000000E+00  0.00000000E+00  0.00000000E+00
  0.00000000E+00  0.00000000E+00  0.00000000E+00
  0.00000000E+00  0.00000000E+00  0.00000000E+00
  0.00000000E+00  0.00000000E+00  0.00000000E+00
  0.00000000E+00  0.00000000E+00  0.00000000E+00
  0.00000000E+00  0.00000000E+00  0.00000000E+00
  0.00000000E+00  0.00000000E+00  0.00000000E+00
  0.00000000E+00  0.00000000E+00  0.00000000E+00
  0.00000000E+00  0.00000000E+00  0.00000000E+00
  0.00000000E+00  0.00000000E+00  0.00000000E+00
  0.00000000E+00  0.00000000E+00  0.00000000E+00
  0.00000000E+00  0.00000000E+00  0.00000000E+00
  0.00000000E+00  0.00000000E+00  0.00000000E+00
  0.00000000E+00  0.00000000E+00  0.00000000E+00
  0.00000000E+00  0.00000000E+00  0.00000000E+00
  0.00000000E+00  0.00000000E+00  0.00000000E+00
  0.00000000E+00  0.00000000E+00  0.00000000E+00
  0.00000000E+00  0.00000000E+00  0.00000000E+00
  0.00000000E+00  0.00000000E+00  0.00000000E+00
  0.00000000E+00  0.00000000E+00  0.00000000E+00
  0.00000000E+00  0.00000000E+00  0.00000000E+00
  0.00000000E+00  0.00000000E+00  0.00000000E+00
  0.00000000E+00  0.00000000E+00  0.00000000E+00
  0.00000000E+00  0.00000000E+00  0.00000000E+00
  0.00000000E+00  0.00000000E+00  0.00000000E+00
  0.00000000E+00  0.00000000E+00  0.00000000E+00
  0.00000000E+00  0.00000000E+00  0.00000000E+00
  0.00000000E+00  0.00000000E+00  0.00000000E+00
  0.00000000E+00  0.00000000E+00  0.00000000E+00
  0.00000000E+00  0.00000000E+00  0.00000000E+00
  0.00000000E+00  0.00000000E+00  0.00000000E+00
  0.00000000E+00  0.00000000E+00  0.00000000E+00
  0.00000000E+00  0.00000000E+00  0.00000000E+00
  0.00000000E+00  0.00000000E+00  0.00000000E+00
  0.00000000E+00  0.00000000E+00  0.00000000E+00
  0.00000000E+00  0.00000000E+00  0.00000000E+00
  0.00000000E+00  0.00000000E+00  0.00000000E+00
  0.00000000E+00  0.00000000E+00  0.00000000E+00
  0.00000000E+00  0.00000000E+00  0.00000000E+00
  0.00000000E+00  0.00000000E+00  0.00000000E+00
  0.00000000E+00  0.00000000E+00  0.00000000E+00
  0.00000000E+00  0.00000000E+00  0.00000000E+00
  0.00000000E+00  0.00000000E+00  0.00000000E+00
  0.00000000E+00  0.00000000E+00  0.00000000E+00
  0.00000000E+00  0.00000000E+00  0.00000000E+00
  0.00000000E+00  0.00000000E+00  0.00000000E+00
  0.00000000E+00  0.00000000E+00  0.00000000E+00
  0.00000000E+00  0.00000000E+00  0.00000000E+00
  0.00000000E+00  0.00000000E+00  0.00000000E+00
  0.00000000E+00  0.00000000E+00  0.00000000E+00
  0.00000000E+00  0.00000000E+00  0.00000000E+00
  0.00000000E+00  0.00000000E+00  0.00000000E+00
  0.00000000E+00  0.00000000E+00  0.00000000E+00
  0.00000000E+00  0.00000000E+00  0.00000000E+00
  0.00000000E+00  0.00000000E+00  0.00000000E+00
  0.00000000E+00  0.00000000E+00  0.00000000E+00
  0.00000000E+00  0.00000000E+00  0.00000000E+00
  0.00000000E+00  0.00000000E+00  0.00000000E+00
  0.00000000E+00  0.00000000E+00  0.00000000E+00
  0.00000000E+00  0.00000000E+00  0.00000000E+00
  0.00000000E+00  0.00000000E+00  0.00000000E+00
  0.00000000E+00  0.00000000E+00  0.00000000E+00
  0.00000000E+00  0.00000000E+00  0.00000000E+00
  0.00000000E+00  0.00000000E+00  0.00000000E+00
  0.00000000E+00  0.00000000E+00  0.00000000E+00
  0.00000000E+00  0.00000000E+00  0.00000000E+00
  0.00000000E+00  0.00000000E+00  0.00000000E+00
  0.00000000E+00  0.00000000E+00  0.00000000E+00
  0.00000000E+00  0.00000000E+00  0.00000000E+00
  0.00000000E+00  0.00000000E+00  0.00000000E+00
  0.00000000E+00  0.00000000E+00  0.00000000E+00
  0.00000000E+00  0.00000000E+00  0.00000000E+00
  0.00000000E+00  0.00000000E+00  0.00000000E+00
  0.00000000E+00  0.00000000E+00  0.00000000E+00
  0.00000000E+00  0.00000000E+00  0.00000000E+00
  0.00000000E+00  0.00000000E+00  0.00000000E+00
  0.00000000E+00  0.00000000E+00  0.00000000E+00
  0.00000000E+00  0.00000000E+00  0.00000000E+00
  0.00000000E+00  0.00000000E+00  0.00000000E+00
  0.00000000E+00  0.00000000E+00  0.00000000E+00
  0.00000000E+00  0.00000000E+00  0.00000000E+00
  0.00000000E+00  0.00000000E+00  0.00000000E+00
  0.00000000E+00  0.00000000E+00  0.00000000E+00
  0.00000000E+00  0.00000000E+00  0.00000000E+00
  0.00000000E+00  0.00000000E+00  0.00000000E+00
  0.00000000E+00  0.00000000E+00  0.00000000E+00
  0.00000000E+00  0.00000000E+00  0.00000000E+00
  0.00000000E+00  0.00000000E+00  0.00000000E+00
  0.00000000E+00  0.00000000E+00  0.00000000E+00
  0.00000000E+00  0.00000000E+00  0.00000000E+00
  0.00000000E+00  0.00000000E+00  0.00000000E+00
  0.00000000E+00  0.00000000E+00  0.00000000E+00
  0.00000000E+00  0.00000000E+00  0.00000000E+00
  0.00000000E+00  0.00000000E+00  0.00000000E+00
  0.00000000E+00  0.00000000E+00  0.00000000E+00
  0.00000000E+00  0.00000000E+00  0.00000000E+00
  0.00000000E+00  0.00000000E+00  0.00000000E+00
  0.00000000E+00  0.00000000E+00  0.00000000E+00
  0.00000000E+00  0.00000000E+00  0.00000000E+00
  0.00000000E+00  0.00000000E+00  0.00000000E+00
  0.00000000E+00  0.00000000E+00  0.00000000E+00
  0.00000000E+00  0.00000000E+00  0.00000000E+00
  0.00000000E+00  0.00000000E+00  0.00000000E+00
  0.00000000E+00  0.00000000E+00  0.00000000E+00
  0.00000000E+00  0.00000000E+00  0.00000000E+00
  0.00000000E+00  0.00000000E+00  0.00000000E+00
  0.00000000E+00  0.00000000E+00  0.00000000E+00
  0.00000000E+00  0.00000000E+00  0.00000000E+00
  0.00000000E+00  0.00000000E+00  0.00000000E+00
  0.00000000E+00  0.00000000E+00  0.00000000E+00
  0.00000000E+00  0.00000000E+00  0.00000000E+00
  0.00000000E+00  0.00000000E+00  0.00000000E+00
  0.00000000E+00  0.00000000E+00  0.00000000E+00
  0.00000000E+00  0.00000000E+00  0.00000000E+00
  0.00000000E+00  0.00000000E+00  0.00000000E+00
  0.00000000E+00  0.00000000E+00  0.00000000E+00
  0.00000000E+00  0.00000000E+00  0.00000000E+00
  0.00000000E+00  0.00000000E+00  0.00000000E+00
  0.00000000E+00  0.00000000E+00  0.00000000E+00
  0.00000000E+00  0.00000000E+00  0.00000000E+00
  0.00000000E+00  0.00000000E+00  0.00000000E+00
  0.00000000E+00  0.00000000E+00  0.00000000E+00
  0.00000000E+00  0.00000000E+00  0.00000000E+00
  0.00000000E+00  0.00000000E+00  0.00000000E+00
  0.00000000E+00  0.00000000E+00  0.00000000E+00
  0.00000000E+00  0.00000000E+00  0.00000000E+00
  0.00000000E+00  0.00000000E+00  0.00000000E+00
  0.00000000E+00  0.00000000E+00  0.00000000E+00
  0.00000000E+00  0.00000000E+00  0.00000000E+00
  0.00000000E+00  0.00000000E+00  0.00000000E+00
  0.00000000E+00  0.00000000E+00  0.00000000E+00
  0.00000000E+00  0.00000000E+00  0.00000000E+00
  0.00000000E+00  0.00000000E+00  0.00000000E+00
  0.00000000E+00  0.00000000E+00  0.00000000E+00
  0.00000000E+00  0.00000000E+00  0.00000000E+00
  0.00000000E+00  0.00000000E+00  0.00000000E+00
  0.00000000E+00  0.00000000E+00  0.00000000E+00
  0.00000000E+00  0.00000000E+00  0.00000000E+00
  0.00000000E+00  0.00000000E+00  0.00000000E+00
  0.00000000E+00  0.00000000E+00  0.00000000E+00
  0.00000000E+00  0.00000000E+00  0.00000000E+00
  0.00000000E+00  0.00000000E+00  0.00000000E+00
  0.00000000E+00  0.00000000E+00  0.00000000E+00
  0.00000000E+00  0.00000000E+00  0.00000000E+00
  0.00000000E+00  0.00000000E+00  0.00000000E+00
  0.00000000E+00  0.00000000E+00  0.00000000E+00
  0.00000000E+00  0.00000000E+00  0.00000000E+00
  0.00000000E+00  0.00000000E+00  0.00000000E+00
  0.00000000E+00  0.00000000E+00  0.00000000E+00
  0.00000000E+00  0.00000000E+00  0.00000000E+00
  0.00000000E+00  0.00000000E+00  0.00000000E+00
  0.00000000E+00  0.00000000E+00  0.00000000E+00
  0.00000000E+00  0.00000000E+00  0.00000000E+00
  0.00000000E+00  0.00000000E+00  0.00000000E+00
  0.00000000E+00  0.00000000E+00  0.00000000E+00
  0.00000000E+00  0.00000000E+00  0.00000000E+00
  0.00000000E+00  0.00000000E+00  0.00000000E+00
