"C194 N13 H22 Co1"                      
   1.00000000000000     
    22.2217597960999989    0.0000000000000000    0.0000000000000000
   -11.1111956283000008   19.2452322976999994    0.0000000000000000
     0.0484959869000000    0.1055859658000000   25.4450567555999996
   C    N    H    Co
   194    13    22     1
Direct
  0.0000299879900183  0.9999026247289251  0.0474917050153536
  0.0371862029016228  0.0740574673455399  0.0460180928086729
  0.0001538433797492  0.1111063999514172  0.0464966206047777
  0.0372608685793026  0.1852150817381926  0.0442665021056285
  0.0002011276154050  0.2222310017194999  0.0447569982792473
  0.0372540685484708  0.2963132030250648  0.0418859750471086
  0.0001392370976987  0.3332865180429962  0.0422360611572188
  0.0371824242509007  0.4073656414924116  0.0397641398138120
  0.0000575396058977  0.4443421184371985  0.0408590142246368
  0.0371028827183366  0.5184361700826727  0.0406622585739314
  0.9999901938193290  0.5554109233125715  0.0422239973137337
  0.0370142288731685  0.6294694346626457  0.0439334177738289
  0.9998681259427542  0.6664116757272822  0.0451318276863688
  0.0368993523182084  0.7404729470225746  0.0471129324649979
  0.9997925839706312  0.7774763316135349  0.0474322486714840
  0.0368948115723100  0.8516061812163045  0.0483204057076065
  0.9998693177788596  0.8886596556206783  0.0480234553304726
  0.0370227700122854  0.9628439311044517  0.0475642338951801
  0.1111501598480302  0.9999612104818780  0.0459308073843232
  0.1482221108090229  0.0740240406556438  0.0427040531086931
  0.1112339774103077  0.1110921611598243  0.0429039142913794
  0.1482755316131943  0.1851475321560230  0.0395681071761018
  0.1112878917728750  0.2222120432398285  0.0405122956218449
  0.1482885629644457  0.2962718755043099  0.0372622692877158
  0.1112513677383902  0.3333223589944083  0.0380098556433026
  0.1482246822389683  0.4073842838633368  0.0348738854462667
  0.1111975964135183  0.4444006755388514  0.0362057403031599
  0.1482360594721683  0.5185219308060951  0.0352964647836487
  0.1112273611038077  0.5554797056107503  0.0387057315602206
  0.1482347899793552  0.6295464855984108  0.0405554274859412
  0.1111329055874961  0.6664659246825551  0.0438517814803845
  0.1481297677792455  0.7405144503045022  0.0459643676269650
  0.1110220148447638  0.7774898485163035  0.0476558152382012
  0.1480865741797004  0.8516312811480802  0.0482143683189022
  0.1110450234570166  0.8886898679277948  0.0482192768798342
  0.1481454758819609  0.9628392888380475  0.0464789375680112
  0.2222316186696958  0.9999204726702331  0.0445571139132284
  0.2592281847859965  0.0739787544946324  0.0407896651943460
  0.2222523718761664  0.1110253753625443  0.0393591647911649
  0.2592365318613545  0.1850313735783686  0.0356545211011010
  0.2222233839598928  0.2220933194719450  0.0355833914826036
  0.2592029140016407  0.2961494849982316  0.0328038188434903
  0.2222396388888797  0.3332441621776780  0.0334027427432559
  0.2592222080294775  0.4073544533276134  0.0309378077783364
  0.2222408974848946  0.4444219646500613  0.0315367278642071
  0.2592749084682495  0.5185549299327761  0.0306495682725654
  0.2222606337583031  0.5555834351755919  0.0329236799645756
  0.2593059060945961  0.6296624403859283  0.0348654648355620
  0.2223296032586717  0.6665617507778023  0.0391529139117708
  0.2593029081715414  0.7405654778090991  0.0424131191050705
  0.2222440691045975  0.7775271782571593  0.0455568416969925
  0.2592561610520292  0.8516326393492761  0.0470449812328866
  0.2221922167842365  0.8886923677228395  0.0476775944558554
  0.2592321726983329  0.9628482107370999  0.0462125948829311
  0.3333466987364204  0.9999352938517276  0.0455795721469059
  0.3703435419002972  0.0740526873895959  0.0426903527638132
  0.3333033547694910  0.1110434121046211  0.0395439083906837
  0.3703018887656526  0.1850470941758005  0.0357621637005252
  0.3332495870237011  0.2220229202633632  0.0335370500517413
  0.3703209175669713  0.2961217275399264  0.0311401128116984
  0.3332863114736142  0.3331858413037736  0.0306500303580179
  0.3703293499530247  0.4073116738405176  0.0293991333700490
  0.3333217974932978  0.4444158455744116  0.0292751685140473
  0.3704031380850310  0.5185692650537206  0.0288525793196897
  0.3333435298772898  0.5556131751944662  0.0296902984967460
  0.3704444922932453  0.6297148761402624  0.0315225463947257
  0.3333883810336360  0.6666658642535594  0.0345109318485015
  0.3704001499004406  0.7406014726518180  0.0384751089003501
  0.3333858985023639  0.7775775195359174  0.0421437644865961
  0.3703689936776868  0.8516152982564478  0.0449950592141661
  0.3333441643297661  0.8886764093205173  0.0466917417253754
  0.3703667504044361  0.9628456551102929  0.0467058739756112
  0.4444392568444613  0.9999004928239756  0.0464646529943380
  0.4814404608042153  0.0740372220919596  0.0448524301585635
  0.4444485462150993  0.1110983191908375  0.0422740426475343
  0.4814467768757567  0.1851401140274618  0.0385765744215192
  0.4444203506817104  0.2220898243225307  0.0351991925408157
  0.4815056466132361  0.2961350435443038  0.0320244465473749
  0.4444413469287198  0.3331568646708547  0.0303437875661672
  0.4815299030114844  0.4072563561663713  0.0292903790672838
  0.4444807142190967  0.4443643938126485  0.0290553940295482
  0.4815751726731605  0.5185362829328568  0.0290105201887769
  0.4445230301446443  0.5556248217593449  0.0290120764978141
  0.4816091054945417  0.6297168455753024  0.0302220881351474
  0.4445157716673904  0.6666976045513877  0.0320105520869589
  0.4815598016629750  0.7406892304157466  0.0354448223505557
  0.4445082734005439  0.7776084872474627  0.0388725075359275
  0.4814712881270111  0.8516144097591081  0.0425815250763009
  0.4444605618152337  0.8886513025367719  0.0450758983546393
  0.4814519607447849  0.9627805721001650  0.0465281572343628
  0.5555180843884528  0.9998299060117333  0.0467204422042684
  0.5925424675371431  0.0739977224419306  0.0465204438647717
  0.5555341066603390  0.1110715549815424  0.0447272955613727
  0.5925444049604636  0.1851410471865620  0.0418206951514293
  0.5555604387922415  0.2221559775083435  0.0382226627250191
  0.5926091412540870  0.2961428536117765  0.0344778401594539
  0.5555730806227359  0.3331316362703802  0.0317189935546267
  0.5926886835244289  0.4072605339946520  0.0302327323806253
  0.5556525921881104  0.4443168094736976  0.0293805698178460
  0.5927295583532768  0.5184700597777336  0.0298300416758437
  0.5557280297480958  0.5555778760574555  0.0296244969195243
  0.5927633071139695  0.6296754136704052  0.0308373154132724
  0.5557104401503068  0.6667290534155867  0.0312131187539819
  0.5927560854429430  0.7407861076908162  0.0337690167872324
  0.5556785015469288  0.7777157585491778  0.0361172891675707
  0.5926410613294522  0.8516867217093704  0.0399952026537633
  0.5555707126251122  0.8886592671042308  0.0430282957729275
  0.5925438606398572  0.9627451513854268  0.0457678141378111
  0.6666523544453753  0.9998220421178843  0.0464114943092255
  0.7036876415804301  0.0739728412068388  0.0476244672625938
  0.6666298998788633  0.1110362103662581  0.0468238612735448
  0.7036510991338076  0.1851463789049888  0.0451828893111070
  0.6666241809838525  0.2221464940463065  0.0420456117263726
  0.7036247258067050  0.2961866245202032  0.0388824631851179
  0.6666846287309056  0.3331461375564189  0.0348853335273702
  0.7037498237996971  0.4072568677109629  0.0333642855249039
  0.6667509801792590  0.4443096590495870  0.0313902587995329
  0.7037663231386659  0.5184147920574489  0.0324823827012253
  0.6667917996507597  0.5554937426215218  0.0317245120568757
  0.7037640241215328  0.6295784324336253  0.0340161827669974
  0.6668108551802163  0.6666748677498120  0.0331559627723266
  0.7037872238312417  0.7407124989788443  0.0358654390410678
  0.6667623918957446  0.7777551715132915  0.0359643146125208
  0.7037116630916600  0.8517112478369597  0.0397242627559962
  0.6667107755940833  0.8887397234789844  0.0412310689504309
  0.7036708789206187  0.9627667783858556  0.0449184901189739
  0.7777491314179485  0.9998382389795211  0.0467398676016231
  0.8148373664309219  0.0739758880098265  0.0482302924378502
  0.7777865925142038  0.1110244456666507  0.0480687482487596
  0.8148561028398973  0.1851691310551686  0.0472730801502834
  0.7777630363546564  0.2221525656222809  0.0455219092606001
  0.8147808235420939  0.2962247549170414  0.0433915131406408
  0.7777098260495023  0.3331915306480724  0.0402641687422616
  0.8147372312860028  0.4072774626808950  0.0387090648235286
  0.7777425155447517  0.4442830459958813  0.0357606007930258
  0.8147550658588116  0.5183699364248184  0.0370397103331825
  0.7777337075470072  0.5554003675807024  0.0358648765371186
  0.8146955375376450  0.6294393428158287  0.0388603334973610
  0.7776803198333297  0.6665058466866611  0.0379063450688903
  0.8146690902071398  0.7405385935984157  0.0408981844930096
  0.7776894635829663  0.7776119116126310  0.0398199777934565
  0.8147043111257659  0.8516239608275811  0.0431151600247262
  0.7777040369464956  0.8886816529185637  0.0430284406189898
  0.8147542951045637  0.9627303638877294  0.0462126136048369
  0.8888751019620784  0.9998370930097735  0.0476891551516658
  0.9260249528858111  0.0740174716052735  0.0479877689205850
  0.8889905080179972  0.1110592815959990  0.0481905869982953
  0.9260998711934292  0.1851979205277772  0.0470446855422040
  0.8889864884120655  0.2221932814090266  0.0466219259328611
  0.9260274180934616  0.2962629102896415  0.0445115456760234
  0.8888941620933721  0.3332170451356617  0.0434162787322236
  0.9259388782539872  0.4072997706962980  0.0418865874017627
  0.8888410113687470  0.4442925839646890  0.0406541821581143
  0.9258843446529497  0.5183835239657881  0.0412329725285190
  0.8887481691683448  0.5553637916572640  0.0405055781428629
  0.9257716383897048  0.6294160052022875  0.0429949469499249
  0.8886621471011154  0.6664012697322903  0.0426242395929819
  0.9257042309455130  0.7404643191784501  0.0452557922027808
  0.8886575380374495  0.7774915346863054  0.0446068945247475
  0.9257587130462710  0.8515909089977498  0.0466470858601724
  0.8887292063922843  0.8886407272539572  0.0461475239854678
  0.9258699481797237  0.9627781784467260  0.0475589150137807
  0.2691491283658394  0.1344053886807330  0.1667507753944832
  0.3387064504248585  0.1896143437565740  0.1659020828727620
  0.3502656910875430  0.2574017220478453  0.1647147547818761
  0.2950788395437982  0.2717108342418300  0.1643139769702344
  0.2258731844237971  0.2171309735433624  0.1654868471043116
  0.2135672818445826  0.1491134037225379  0.1668507459067143
  0.3264737379344211  0.3469253205100316  0.1623937723396693
  0.4143633622777259  0.3248236947761924  0.1631142029772761
  0.3185618681472704  0.4471374220202904  0.1615366549161052
  0.3945090313083881  0.5615522296606272  0.1619360464780826
  0.2775122502794289  0.4820822101034921  0.1622597109904120
  0.3256965431919383  0.5541121098862192  0.1624341848919855
  0.3024911101771721  0.6023787501940419  0.1625852361720277
  0.2309760926966646  0.5771191923906258  0.1626407963587297
  0.1820603610447407  0.5044249930687883  0.1623542861886520
  0.2058532129066961  0.4561268584515901  0.1622515882186377
  0.5345299662776384  0.3919677790512921  0.1637395655513671
  0.6107740537628246  0.5064708046826496  0.1642254835615660
  0.6264750276047053  0.3510520979964582  0.1639615617629531
  0.6979461822116306  0.3762142952186167  0.1637816580546954
  0.7469885376909033  0.4489070228863241  0.1637659290731506
  0.7233029090759970  0.4972644164223894  0.1643479030331818
  0.6516254637721914  0.4714270011230113  0.1646807835904767
  0.6033172749309514  0.3994046494378978  0.1644218041473735
  0.6027214749805268  0.6065330188706923  0.1646242305322616
  0.5146992482097303  0.6287339677690085  0.1638020274591128
  0.6340116683986921  0.6815693281414141  0.1660508534151077
  0.7033596022150093  0.7358817458100830  0.1669993658307831
  0.7160560942535454  0.8040174856640974  0.1675964580922908
  0.6606833114012076  0.8190822252022443  0.1670711985003663
  0.5910060182125605  0.7641499901907096  0.1662017426895943
  0.5789246194374229  0.6960778759618123  0.1656376841628813
  0.3987678524131226  0.3780152644016184  0.1612198286851267
  0.2889506111673015  0.3783518871630918  0.1619835094941493
  0.3889872110834531  0.4961674910423710  0.1606926885499149
  0.4767113773848166  0.3303747479348473  0.1637585601877447
  0.5401084353282926  0.4575345901957917  0.1630954086166838
  0.6403070808609783  0.5751885539257842  0.1647360499400037
  0.5303213564947242  0.5753135992441329  0.1629624676223926
  0.4523197958919596  0.6231407123801276  0.1630506016852422
  0.1108990011185895  0.4815517938024740  0.1634926758238038
  0.6759839759473962  0.8881986060434102  0.1687026967617697
  0.8181014617008557  0.4716167818127985  0.1642949422373974
  0.2544799399644901  0.0654751634194568  0.1688501714998409
  0.4599099531082729  0.4743128883836576  0.2410867079632197
  0.3820845465133971  0.1795960663605669  0.1654075808260842
  0.1829261567181959  0.2277182609499278  0.1646215671565656
  0.1601920687986933  0.1055959339752661  0.1668672845721701
  0.3394529230745249  0.6581185442738686  0.1619049782565654
  0.2113870723571338  0.6135189434675468  0.1616769128624540
  0.1693626509709816  0.4002538794178463  0.1614474336054741
  0.5894210552138546  0.2953450817616314  0.1628237218072570
  0.7173980360241501  0.3397594212555362  0.1620961198217330
  0.7597797347993875  0.5531479233148957  0.1636045295332735
  0.7460150663080185  0.7248071441145356  0.1663597959609859
  0.7695576981995274  0.8473722144193587  0.1671490200318715
  0.5478991986015913  0.7745634908506318  0.1650442630455942
  0.0798503648838178  0.4326894737749569  0.1494783299483160
  0.0974425561046104  0.5155335871121594  0.1481617787083778
  0.7235461318142598  0.9234412857881367  0.1541729211264240
  0.6381606263853215  0.8966697324401025  0.1542653719842448
  0.8313754271364715  0.4376300377275584  0.1488245682061375
  0.8491708768942630  0.5205844600668357  0.1501348230381794
  0.2071553645446969  0.0297774844860754  0.1545299724589242
  0.2928283030847396  0.0575018797394264  0.1547053743624787
  0.4919414090382332  0.4551764768467521  0.2523009952012742
  0.4884064383799611  0.5259415606265208  0.2521091016379700
  0.4646273721119414  0.4768269854975955  0.1658550932268525
 
  0.00000000E+00  0.00000000E+00  0.00000000E+00
  0.00000000E+00  0.00000000E+00  0.00000000E+00
  0.00000000E+00  0.00000000E+00  0.00000000E+00
  0.00000000E+00  0.00000000E+00  0.00000000E+00
  0.00000000E+00  0.00000000E+00  0.00000000E+00
  0.00000000E+00  0.00000000E+00  0.00000000E+00
  0.00000000E+00  0.00000000E+00  0.00000000E+00
  0.00000000E+00  0.00000000E+00  0.00000000E+00
  0.00000000E+00  0.00000000E+00  0.00000000E+00
  0.00000000E+00  0.00000000E+00  0.00000000E+00
  0.00000000E+00  0.00000000E+00  0.00000000E+00
  0.00000000E+00  0.00000000E+00  0.00000000E+00
  0.00000000E+00  0.00000000E+00  0.00000000E+00
  0.00000000E+00  0.00000000E+00  0.00000000E+00
  0.00000000E+00  0.00000000E+00  0.00000000E+00
  0.00000000E+00  0.00000000E+00  0.00000000E+00
  0.00000000E+00  0.00000000E+00  0.00000000E+00
  0.00000000E+00  0.00000000E+00  0.00000000E+00
  0.00000000E+00  0.00000000E+00  0.00000000E+00
  0.00000000E+00  0.00000000E+00  0.00000000E+00
  0.00000000E+00  0.00000000E+00  0.00000000E+00
  0.00000000E+00  0.00000000E+00  0.00000000E+00
  0.00000000E+00  0.00000000E+00  0.00000000E+00
  0.00000000E+00  0.00000000E+00  0.00000000E+00
  0.00000000E+00  0.00000000E+00  0.00000000E+00
  0.00000000E+00  0.00000000E+00  0.00000000E+00
  0.00000000E+00  0.00000000E+00  0.00000000E+00
  0.00000000E+00  0.00000000E+00  0.00000000E+00
  0.00000000E+00  0.00000000E+00  0.00000000E+00
  0.00000000E+00  0.00000000E+00  0.00000000E+00
  0.00000000E+00  0.00000000E+00  0.00000000E+00
  0.00000000E+00  0.00000000E+00  0.00000000E+00
  0.00000000E+00  0.00000000E+00  0.00000000E+00
  0.00000000E+00  0.00000000E+00  0.00000000E+00
  0.00000000E+00  0.00000000E+00  0.00000000E+00
  0.00000000E+00  0.00000000E+00  0.00000000E+00
  0.00000000E+00  0.00000000E+00  0.00000000E+00
  0.00000000E+00  0.00000000E+00  0.00000000E+00
  0.00000000E+00  0.00000000E+00  0.00000000E+00
  0.00000000E+00  0.00000000E+00  0.00000000E+00
  0.00000000E+00  0.00000000E+00  0.00000000E+00
  0.00000000E+00  0.00000000E+00  0.00000000E+00
  0.00000000E+00  0.00000000E+00  0.00000000E+00
  0.00000000E+00  0.00000000E+00  0.00000000E+00
  0.00000000E+00  0.00000000E+00  0.00000000E+00
  0.00000000E+00  0.00000000E+00  0.00000000E+00
  0.00000000E+00  0.00000000E+00  0.00000000E+00
  0.00000000E+00  0.00000000E+00  0.00000000E+00
  0.00000000E+00  0.00000000E+00  0.00000000E+00
  0.00000000E+00  0.00000000E+00  0.00000000E+00
  0.00000000E+00  0.00000000E+00  0.00000000E+00
  0.00000000E+00  0.00000000E+00  0.00000000E+00
  0.00000000E+00  0.00000000E+00  0.00000000E+00
  0.00000000E+00  0.00000000E+00  0.00000000E+00
  0.00000000E+00  0.00000000E+00  0.00000000E+00
  0.00000000E+00  0.00000000E+00  0.00000000E+00
  0.00000000E+00  0.00000000E+00  0.00000000E+00
  0.00000000E+00  0.00000000E+00  0.00000000E+00
  0.00000000E+00  0.00000000E+00  0.00000000E+00
  0.00000000E+00  0.00000000E+00  0.00000000E+00
  0.00000000E+00  0.00000000E+00  0.00000000E+00
  0.00000000E+00  0.00000000E+00  0.00000000E+00
  0.00000000E+00  0.00000000E+00  0.00000000E+00
  0.00000000E+00  0.00000000E+00  0.00000000E+00
  0.00000000E+00  0.00000000E+00  0.00000000E+00
  0.00000000E+00  0.00000000E+00  0.00000000E+00
  0.00000000E+00  0.00000000E+00  0.00000000E+00
  0.00000000E+00  0.00000000E+00  0.00000000E+00
  0.00000000E+00  0.00000000E+00  0.00000000E+00
  0.00000000E+00  0.00000000E+00  0.00000000E+00
  0.00000000E+00  0.00000000E+00  0.00000000E+00
  0.00000000E+00  0.00000000E+00  0.00000000E+00
  0.00000000E+00  0.00000000E+00  0.00000000E+00
  0.00000000E+00  0.00000000E+00  0.00000000E+00
  0.00000000E+00  0.00000000E+00  0.00000000E+00
  0.00000000E+00  0.00000000E+00  0.00000000E+00
  0.00000000E+00  0.00000000E+00  0.00000000E+00
  0.00000000E+00  0.00000000E+00  0.00000000E+00
  0.00000000E+00  0.00000000E+00  0.00000000E+00
  0.00000000E+00  0.00000000E+00  0.00000000E+00
  0.00000000E+00  0.00000000E+00  0.00000000E+00
  0.00000000E+00  0.00000000E+00  0.00000000E+00
  0.00000000E+00  0.00000000E+00  0.00000000E+00
  0.00000000E+00  0.00000000E+00  0.00000000E+00
  0.00000000E+00  0.00000000E+00  0.00000000E+00
  0.00000000E+00  0.00000000E+00  0.00000000E+00
  0.00000000E+00  0.00000000E+00  0.00000000E+00
  0.00000000E+00  0.00000000E+00  0.00000000E+00
  0.00000000E+00  0.00000000E+00  0.00000000E+00
  0.00000000E+00  0.00000000E+00  0.00000000E+00
  0.00000000E+00  0.00000000E+00  0.00000000E+00
  0.00000000E+00  0.00000000E+00  0.00000000E+00
  0.00000000E+00  0.00000000E+00  0.00000000E+00
  0.00000000E+00  0.00000000E+00  0.00000000E+00
  0.00000000E+00  0.00000000E+00  0.00000000E+00
  0.00000000E+00  0.00000000E+00  0.00000000E+00
  0.00000000E+00  0.00000000E+00  0.00000000E+00
  0.00000000E+00  0.00000000E+00  0.00000000E+00
  0.00000000E+00  0.00000000E+00  0.00000000E+00
  0.00000000E+00  0.00000000E+00  0.00000000E+00
  0.00000000E+00  0.00000000E+00  0.00000000E+00
  0.00000000E+00  0.00000000E+00  0.00000000E+00
  0.00000000E+00  0.00000000E+00  0.00000000E+00
  0.00000000E+00  0.00000000E+00  0.00000000E+00
  0.00000000E+00  0.00000000E+00  0.00000000E+00
  0.00000000E+00  0.00000000E+00  0.00000000E+00
  0.00000000E+00  0.00000000E+00  0.00000000E+00
  0.00000000E+00  0.00000000E+00  0.00000000E+00
  0.00000000E+00  0.00000000E+00  0.00000000E+00
  0.00000000E+00  0.00000000E+00  0.00000000E+00
  0.00000000E+00  0.00000000E+00  0.00000000E+00
  0.00000000E+00  0.00000000E+00  0.00000000E+00
  0.00000000E+00  0.00000000E+00  0.00000000E+00
  0.00000000E+00  0.00000000E+00  0.00000000E+00
  0.00000000E+00  0.00000000E+00  0.00000000E+00
  0.00000000E+00  0.00000000E+00  0.00000000E+00
  0.00000000E+00  0.00000000E+00  0.00000000E+00
  0.00000000E+00  0.00000000E+00  0.00000000E+00
  0.00000000E+00  0.00000000E+00  0.00000000E+00
  0.00000000E+00  0.00000000E+00  0.00000000E+00
  0.00000000E+00  0.00000000E+00  0.00000000E+00
  0.00000000E+00  0.00000000E+00  0.00000000E+00
  0.00000000E+00  0.00000000E+00  0.00000000E+00
  0.00000000E+00  0.00000000E+00  0.00000000E+00
  0.00000000E+00  0.00000000E+00  0.00000000E+00
  0.00000000E+00  0.00000000E+00  0.00000000E+00
  0.00000000E+00  0.00000000E+00  0.00000000E+00
  0.00000000E+00  0.00000000E+00  0.00000000E+00
  0.00000000E+00  0.00000000E+00  0.00000000E+00
  0.00000000E+00  0.00000000E+00  0.00000000E+00
  0.00000000E+00  0.00000000E+00  0.00000000E+00
  0.00000000E+00  0.00000000E+00  0.00000000E+00
  0.00000000E+00  0.00000000E+00  0.00000000E+00
  0.00000000E+00  0.00000000E+00  0.00000000E+00
  0.00000000E+00  0.00000000E+00  0.00000000E+00
  0.00000000E+00  0.00000000E+00  0.00000000E+00
  0.00000000E+00  0.00000000E+00  0.00000000E+00
  0.00000000E+00  0.00000000E+00  0.00000000E+00
  0.00000000E+00  0.00000000E+00  0.00000000E+00
  0.00000000E+00  0.00000000E+00  0.00000000E+00
  0.00000000E+00  0.00000000E+00  0.00000000E+00
  0.00000000E+00  0.00000000E+00  0.00000000E+00
  0.00000000E+00  0.00000000E+00  0.00000000E+00
  0.00000000E+00  0.00000000E+00  0.00000000E+00
  0.00000000E+00  0.00000000E+00  0.00000000E+00
  0.00000000E+00  0.00000000E+00  0.00000000E+00
  0.00000000E+00  0.00000000E+00  0.00000000E+00
  0.00000000E+00  0.00000000E+00  0.00000000E+00
  0.00000000E+00  0.00000000E+00  0.00000000E+00
  0.00000000E+00  0.00000000E+00  0.00000000E+00
  0.00000000E+00  0.00000000E+00  0.00000000E+00
  0.00000000E+00  0.00000000E+00  0.00000000E+00
  0.00000000E+00  0.00000000E+00  0.00000000E+00
  0.00000000E+00  0.00000000E+00  0.00000000E+00
  0.00000000E+00  0.00000000E+00  0.00000000E+00
  0.00000000E+00  0.00000000E+00  0.00000000E+00
  0.00000000E+00  0.00000000E+00  0.00000000E+00
  0.00000000E+00  0.00000000E+00  0.00000000E+00
  0.00000000E+00  0.00000000E+00  0.00000000E+00
  0.00000000E+00  0.00000000E+00  0.00000000E+00
  0.00000000E+00  0.00000000E+00  0.00000000E+00
  0.00000000E+00  0.00000000E+00  0.00000000E+00
  0.00000000E+00  0.00000000E+00  0.00000000E+00
  0.00000000E+00  0.00000000E+00  0.00000000E+00
  0.00000000E+00  0.00000000E+00  0.00000000E+00
  0.00000000E+00  0.00000000E+00  0.00000000E+00
  0.00000000E+00  0.00000000E+00  0.00000000E+00
  0.00000000E+00  0.00000000E+00  0.00000000E+00
  0.00000000E+00  0.00000000E+00  0.00000000E+00
  0.00000000E+00  0.00000000E+00  0.00000000E+00
  0.00000000E+00  0.00000000E+00  0.00000000E+00
  0.00000000E+00  0.00000000E+00  0.00000000E+00
  0.00000000E+00  0.00000000E+00  0.00000000E+00
  0.00000000E+00  0.00000000E+00  0.00000000E+00
  0.00000000E+00  0.00000000E+00  0.00000000E+00
  0.00000000E+00  0.00000000E+00  0.00000000E+00
  0.00000000E+00  0.00000000E+00  0.00000000E+00
  0.00000000E+00  0.00000000E+00  0.00000000E+00
  0.00000000E+00  0.00000000E+00  0.00000000E+00
  0.00000000E+00  0.00000000E+00  0.00000000E+00
  0.00000000E+00  0.00000000E+00  0.00000000E+00
  0.00000000E+00  0.00000000E+00  0.00000000E+00
  0.00000000E+00  0.00000000E+00  0.00000000E+00
  0.00000000E+00  0.00000000E+00  0.00000000E+00
  0.00000000E+00  0.00000000E+00  0.00000000E+00
  0.00000000E+00  0.00000000E+00  0.00000000E+00
  0.00000000E+00  0.00000000E+00  0.00000000E+00
  0.00000000E+00  0.00000000E+00  0.00000000E+00
  0.00000000E+00  0.00000000E+00  0.00000000E+00
  0.00000000E+00  0.00000000E+00  0.00000000E+00
  0.00000000E+00  0.00000000E+00  0.00000000E+00
  0.00000000E+00  0.00000000E+00  0.00000000E+00
  0.00000000E+00  0.00000000E+00  0.00000000E+00
  0.00000000E+00  0.00000000E+00  0.00000000E+00
  0.00000000E+00  0.00000000E+00  0.00000000E+00
  0.00000000E+00  0.00000000E+00  0.00000000E+00
  0.00000000E+00  0.00000000E+00  0.00000000E+00
  0.00000000E+00  0.00000000E+00  0.00000000E+00
  0.00000000E+00  0.00000000E+00  0.00000000E+00
  0.00000000E+00  0.00000000E+00  0.00000000E+00
  0.00000000E+00  0.00000000E+00  0.00000000E+00
  0.00000000E+00  0.00000000E+00  0.00000000E+00
  0.00000000E+00  0.00000000E+00  0.00000000E+00
  0.00000000E+00  0.00000000E+00  0.00000000E+00
  0.00000000E+00  0.00000000E+00  0.00000000E+00
  0.00000000E+00  0.00000000E+00  0.00000000E+00
  0.00000000E+00  0.00000000E+00  0.00000000E+00
  0.00000000E+00  0.00000000E+00  0.00000000E+00
  0.00000000E+00  0.00000000E+00  0.00000000E+00
  0.00000000E+00  0.00000000E+00  0.00000000E+00
  0.00000000E+00  0.00000000E+00  0.00000000E+00
  0.00000000E+00  0.00000000E+00  0.00000000E+00
  0.00000000E+00  0.00000000E+00  0.00000000E+00
  0.00000000E+00  0.00000000E+00  0.00000000E+00
  0.00000000E+00  0.00000000E+00  0.00000000E+00
  0.00000000E+00  0.00000000E+00  0.00000000E+00
  0.00000000E+00  0.00000000E+00  0.00000000E+00
  0.00000000E+00  0.00000000E+00  0.00000000E+00
  0.00000000E+00  0.00000000E+00  0.00000000E+00
  0.00000000E+00  0.00000000E+00  0.00000000E+00
  0.00000000E+00  0.00000000E+00  0.00000000E+00
  0.00000000E+00  0.00000000E+00  0.00000000E+00
  0.00000000E+00  0.00000000E+00  0.00000000E+00
  0.00000000E+00  0.00000000E+00  0.00000000E+00
  0.00000000E+00  0.00000000E+00  0.00000000E+00
  0.00000000E+00  0.00000000E+00  0.00000000E+00
  0.00000000E+00  0.00000000E+00  0.00000000E+00
  0.00000000E+00  0.00000000E+00  0.00000000E+00
  0.00000000E+00  0.00000000E+00  0.00000000E+00
  0.00000000E+00  0.00000000E+00  0.00000000E+00
