"C198 N8 H16 Co1 O8"                    
   1.00000000000000     
    22.2189693450999997    0.0000000000000000    0.0000000000000000
   -11.1034243931999992   19.2364272933999985    0.0000000000000000
    -0.1087146363000000   -0.0825457527000000   25.5803948526999996
   C    N    H    Co   O 
   198     8    16     1     8
Direct
  0.9999109802047670  0.9998706059731717  0.0387489826206604
  0.0370397616285203  0.0740090072950323  0.0374483397554499
  0.0000331377108012  0.1110863348155817  0.0380746909692107
  0.0371217438162006  0.1852041946994234  0.0360466022815373
  0.0000954186168300  0.2222866591887396  0.0366254892683102
  0.0370540164543982  0.2962899710965274  0.0335423487562352
  0.9999671816494882  0.3332998412834485  0.0335045462487145
  0.0369100887336913  0.4072621781971790  0.0305952310465045
  0.9998620687602937  0.4442561156259046  0.0312821888496018
  0.0368748131547392  0.5183709838273103  0.0311401065005938
  0.9997718719297026  0.5553477860353908  0.0329113740695703
  0.0367832156830374  0.6293576239977980  0.0355270877023415
  0.9996405051210004  0.6663057924207934  0.0370098199197173
  0.0366898153516644  0.7403688455718651  0.0396342937231395
  0.9996428492683123  0.7774277336441102  0.0396840811637134
  0.0367866113159394  0.8515933000403919  0.0404665025707232
  0.9997818878291227  0.8886688430859806  0.0396349430407952
  0.0369376102996810  0.9627990817704202  0.0389678020448443
  0.1109863563579268  0.9998065375803264  0.0374761664529544
  0.1480167920072972  0.0738433936491063  0.0343750708951234
  0.1110619688354433  0.1109768259366959  0.0344699532990020
  0.1480297491369242  0.1849797213968500  0.0312790461126511
  0.1110681649689127  0.2221192080312093  0.0322913013682040
  0.1480330264104239  0.2961680020492636  0.0291370917621236
  0.1109984948669336  0.3332318549444082  0.0298031658737941
  0.1479346225670000  0.4072712428178491  0.0267144385510960
  0.1108742250180867  0.4442787925269158  0.0276017287604589
  0.1479044582132545  0.5183827464762203  0.0269639480614572
  0.1109154697053611  0.5554161030429157  0.0298259283958799
  0.1479481179664859  0.6294399551619136  0.0325002662561076
  0.1109021525488245  0.6663518930420196  0.0360776292288847
  0.1479330224472122  0.7404088457348550  0.0391095195659190
  0.1108457750879239  0.7774318498029444  0.0407361370135533
  0.1479042444325671  0.8515755444626265  0.0413502677418904
  0.1108902496663404  0.8886818770917557  0.0406343697538105
  0.1479570517246671  0.9627477878616659  0.0384631021711499
  0.2220096600681742  0.9997854105974326  0.0370070879199247
  0.2590087174011089  0.0737375734859995  0.0331846407970815
  0.2219717724584243  0.1107837528389339  0.0313918562229745
  0.2589381635244195  0.1847736413629804  0.0277149253234015
  0.2219497329528508  0.2218779606028107  0.0274640062661646
  0.2589349406193975  0.2959501442896482  0.0246963305645878
  0.2219681256757156  0.3330929637978386  0.0253415489980213
  0.2589356552242066  0.4071687170257832  0.0229834649471456
  0.2219160916254808  0.4442718943085922  0.0237074413617719
  0.2589675982594954  0.5184364968815558  0.0229904642844474
  0.2219776791412897  0.5554751564471374  0.0252383367856766
  0.2590618873804047  0.6295703532431816  0.0277697753751127
  0.2220547415644560  0.6664674564578519  0.0320785344185879
  0.2590871280349418  0.7404259643251976  0.0361842913452008
  0.2220309227208759  0.7774203295263007  0.0393507099293373
  0.2590865728159244  0.8515599080679834  0.0411492602974519
  0.2220266858792570  0.8886400721443977  0.0412488142046499
  0.2590804681778849  0.9628098342563121  0.0394125934772944
  0.3331806418105003  0.9998856549794013  0.0391111070067964
  0.3701684301230870  0.0739197886996834  0.0357832917440533
  0.3330940836615852  0.1108048014415601  0.0321409208490806
  0.3700711628514952  0.1847814893200947  0.0281482672657205
  0.3329903343723899  0.2217694601408979  0.0256993945668285
  0.3700170733771770  0.2958348346356985  0.0229654594298268
  0.3329697333648269  0.3329409780714627  0.0223939218507212
  0.3700238024810147  0.4071033016910519  0.0209081104783593
  0.3330108242424785  0.4442120481648359  0.0210872057189349
  0.3701141357648368  0.5184332143451087  0.0207398979179132
  0.3330812745123453  0.5555161347858046  0.0220145322142358
  0.3701802935389509  0.6296240372147466  0.0242448025825013
  0.3331436637410334  0.6665830441274636  0.0277404767420322
  0.3702092857461281  0.7405178235065151  0.0324223097660976
  0.3331962785484563  0.7774615019634510  0.0364631329098160
  0.3702525333165809  0.8515424599825820  0.0398146235940544
  0.3332131993056535  0.8886366602599551  0.0412729977078712
  0.3702312374594854  0.9628159152734810  0.0411032304071455
  0.4443400815510827  0.9998897900896466  0.0412598054534214
  0.4813393169599323  0.0740429324408538  0.0392572709920955
  0.4442670801184221  0.1110067967530526  0.0357997998442983
  0.4812449579295830  0.1849650253674966  0.0316520883880216
  0.4441646610680365  0.2218626733471609  0.0276513203759734
  0.4812042002132202  0.2958728509843027  0.0239601094744302
  0.4441518834568541  0.3328981138425675  0.0218909819233986
  0.4812409842814063  0.4070484786342234  0.0203281602503296
  0.4441840027370816  0.4441730473588166  0.0202286095000588
  0.4813034184046145  0.5184096414949266  0.0200036299013320
  0.4442383886982242  0.5555091590933330  0.0204704716479966
  0.4813308016440700  0.6296562892610496  0.0220752292405209
  0.4442873326069261  0.6666485083211313  0.0246718276516376
  0.4813770648272566  0.7406639112407234  0.0288162852381433
  0.4443505636968013  0.7775696157547571  0.0329576944360568
  0.4813812423110164  0.8515557362524575  0.0372302674857252
  0.4443454139508773  0.8885936087098258  0.0401182890501488
  0.4813690724278672  0.9627717102276634  0.0416839099661033
  0.5554886889816473  0.9998528879270623  0.0417933419073364
  0.5924960463375228  0.0740339860141788  0.0413849698367557
  0.5554284450027325  0.1111004455703863  0.0392938902980404
  0.5924242905871822  0.1851391527727984  0.0357683956221280
  0.5553661509406425  0.2220397001207743  0.0314846953242878
  0.5923786726073033  0.2959802365958168  0.0270862413228841
  0.5553181917221366  0.3329300704329157  0.0236534711470782
  0.5923898469720328  0.4070373871162047  0.0215442095714948
  0.5553522869834140  0.4441339014389598  0.0201908029421176
  0.5924634909184903  0.5183537441924884  0.0202760801562079
  0.5554562656894575  0.5554706107886034  0.0201511906214265
  0.5925433042053356  0.6296627027434454  0.0215528353760135
  0.5554881251733335  0.6667347924453750  0.0227521609755073
  0.5925465927731821  0.7407933475581103  0.0259539909356192
  0.5554870990862639  0.7777385724754566  0.0293032407795337
  0.5925108898904270  0.8517099778938828  0.0336976347224507
  0.5554818403235942  0.8886319337929223  0.0374538916980924
  0.5925148489608176  0.9627391205182008  0.0404541536062482
  0.6666197611474303  0.9998309928458653  0.0405336966452623
  0.7036771126647920  0.0740307939220628  0.0416782187988431
  0.6666076186055392  0.1111067712896840  0.0412380991970167
  0.7036235753969748  0.1852296080702445  0.0390220601395441
  0.6665381228074523  0.2221892392592508  0.0356919190138569
  0.7035085521671078  0.2961246762444247  0.0316938089994920
  0.6664509216877761  0.3330180045035505  0.0274430482812136
  0.7034998077923120  0.4070960787008104  0.0252366378684528
  0.6664993113882431  0.4441304875347782  0.0227695404314545
  0.7035734563759988  0.5183170981600469  0.0234310205499568
  0.6665788925783076  0.5554270601306541  0.0221874647735731
  0.7036000554651878  0.6295389255036596  0.0243483742355721
  0.6666235555645343  0.6666903947551717  0.0235984419102664
  0.7036532255472423  0.7407757425872603  0.0265468542014275
  0.6666305105181394  0.7778242887097662  0.0275444738329114
  0.7036528875350285  0.8518328387997443  0.0316934532090727
  0.6666208025003755  0.8888133121585327  0.0343527767211711
  0.7036642662296231  0.9628107532388910  0.0381228565183420
  0.7777466710692735  0.9998934477013890  0.0389235350723212
  0.8148321807857926  0.0740125303070513  0.0407131611209195
  0.7778133043175970  0.1111100476581370  0.0413478646923195
  0.8148449515534963  0.1852390594598106  0.0402627074874005
  0.7777169881797477  0.2222401166379839  0.0386195878942317
  0.8146823235766831  0.2962518937526539  0.0355662428984758
  0.7775939404825181  0.3331546152872846  0.0322467640592734
  0.8146053051435089  0.4071968617867157  0.0299483264342655
  0.7775862562264635  0.4442044941297496  0.0272950796454907
  0.8146255526726591  0.5183033776329040  0.0281830412775861
  0.7775576973410452  0.5553173894674899  0.0269396725234259
  0.8145453043062290  0.6293927338371219  0.0298835076041755
  0.7775451559504845  0.6664802145307434  0.0285405922253403
  0.8145805397542816  0.7405771968428141  0.0315950668654281
  0.7776364855415068  0.7777147169666065  0.0303400939043286
  0.8146342664131225  0.8517164948239255  0.0338393146252542
  0.7776707856929193  0.8888354264676792  0.0341851628122498
  0.8147164437457803  0.9628522781759301  0.0374934772166782
  0.8887925048107093  0.9998995133787929  0.0388516283536333
  0.9259425914359980  0.0740289213923830  0.0395627604234292
  0.8889302170188245  0.1111081376424323  0.0402495028655636
  0.9260295882594889  0.1852460380979224  0.0391773297627935
  0.8889572651620625  0.2222789645360663  0.0389364030788357
  0.9259651233018786  0.2963238535345383  0.0361851455041275
  0.8887983553578493  0.3332510943419820  0.0349040124844109
  0.9257757349700455  0.4072630384585167  0.0325650951948759
  0.8886693908304721  0.4442589208341943  0.0312161056970268
  0.9256695323448412  0.5183397181504503  0.0317017175999581
  0.8886073650236241  0.5553166912415435  0.0313294472134871
  0.9255922115256539  0.6293101821613476  0.0343211271575257
  0.8885279327461220  0.6663386087795899  0.0340475428218028
  0.9255499635372146  0.7403825464766385  0.0369674742264010
  0.8885384152977167  0.7774850213465783  0.0358561534289805
  0.9256596738209097  0.8516065271951447  0.0379028611426762
  0.8886662698162340  0.8886902150037699  0.0370763101922407
  0.9258062868202188  0.9628351452170065  0.0386173456307120
  0.2636021129354376  0.1366676746960778  0.1608706569630698
  0.3339833253239419  0.1892260542238944  0.1595612464658274
  0.3483909763155282  0.2580652277264264  0.1578613191370337
  0.2948831852863663  0.2747847725486352  0.1573379145493092
  0.2246494902418803  0.2225100755594767  0.1585987415944885
  0.2096966128731381  0.1535258905287193  0.1604628177328493
  0.3289590028190474  0.3504007660167971  0.1555010959400249
  0.4138456530017578  0.3239445281219204  0.1561875018449044
  0.3250068384746854  0.4525029208215798  0.1549709286459091
  0.4049078332365639  0.5657884125511785  0.1553878546112557
  0.2867908502900889  0.4903085205276554  0.1558020598593188
  0.3374273398735497  0.5617477903228405  0.1559878300662518
  0.3183428112483142  0.6131457685717834  0.1566040024230659
  0.2474973965505711  0.5914717154682805  0.1573743389963767
  0.1963412595876122  0.5196186252787243  0.1573519253104152
  0.2158032347733112  0.4681649965584853  0.1564364360862029
  0.5339261492693410  0.3872361994595295  0.1554768442012886
  0.6138849550335692  0.5004049598578177  0.1545064103313720
  0.6200464955213434  0.3395056097669240  0.1578124443329045
  0.6908285212137670  0.3608964920415332  0.1588364495812087
  0.7421377284918691  0.4326540103034802  0.1582085360588863
  0.7229897156642906  0.4843557176629218  0.1566554174440640
  0.6520670745895671  0.4625117236806702  0.1558370158113149
  0.6012982944132972  0.3911213445807178  0.1564241534296187
  0.6097901886951718  0.6024412038667890  0.1545647869445546
  0.5250867705341165  0.6292105067987706  0.1561166604008122
  0.6440473603496955  0.6780290547634564  0.1563363982513835
  0.7144265664632741  0.7298590911192591  0.1570172688534583
  0.7300089257685372  0.7989893254448717  0.1594317748993106
  0.6764887104358834  0.8163183111646219  0.1613352000235224
  0.6058756110358416  0.7641546232160294  0.1604633306588639
  0.5907673673878620  0.6950868894047773  0.1577437806690298
  0.1208026447451900  0.4964472106608184  0.1576747653701034
  0.6984580664712041  0.8915089822335815  0.1635721854111836
  0.8175958892127113  0.4554635557081141  0.1584489765142010
  0.2425122513602744  0.0616598469443446  0.1616888637122571
  0.4010411431193788  0.3793179520179422  0.1548437763011350
  0.2931821394395726  0.3836506393366648  0.1551568735234952
  0.3964359296139790  0.4991684998389800  0.1546020247865556
  0.4748668549974369  0.3268110125116124  0.1562685105394053
  0.5424189703091855  0.4538162824026486  0.1543211379880560
  0.6456171505157684  0.5692221852753363  0.1541914414662813
  0.5377510990256695  0.5736998763325403  0.1544632407847573
  0.4640011938610513  0.6262556130272117  0.1562261372118527
  0.3755716897904762  0.1767873841869729  0.1596195542476835
  0.1835337565223156  0.2357362163067833  0.1577839052727654
  0.1561522616303606  0.1105357384927075  0.1611517497829951
  0.3578018678423547  0.6681490246542836  0.1561700945092284
  0.2303360536425814  0.6296773475498512  0.1574984440970937
  0.1761303693326184  0.4132722656033891  0.1561797119796537
  0.5803645803691069  0.2845794564725068  0.1577740285207554
  0.7077821297167901  0.3225414397632065  0.1595989122681445
  0.7628663480157414  0.5391633605453379  0.1560442879089550
  0.7551250206076503  0.7161073405531013  0.1552654251459913
  0.7837121887720002  0.8416966242107833  0.1596654233913881
  0.5646967929791913  0.7771612586500751  0.1617116335379762
  0.0575855039430238  0.5303886044773165  0.1587524041145230
  0.6643749018003362  0.9539646146767851  0.1688154602804843
  0.8804870067485240  0.4211348496489933  0.1607921808270021
  0.2781057961590889  0.0001396192133427  0.1610045170158756
  0.4693979018572634  0.4765140276027751  0.1537285165342155
  0.1081976179715696  0.5511714097980303  0.1597498469358101
  0.0732236068899681  0.4357149641522042  0.1559317542083036
  0.6434132338191105  0.9033099106464562  0.1681903130403342
  0.7588214467015604  0.9396341369592207  0.1613105235619727
  0.8299223138133698  0.4006277893574008  0.1617977305923617
  0.8653133948425449  0.5160078998258086  0.1555975265261864
  0.2983469763143205  0.0507052560641412  0.1616425499468122
  0.1822789434715801  0.0130915839608861  0.1617072488317390
 
  0.00000000E+00  0.00000000E+00  0.00000000E+00
  0.00000000E+00  0.00000000E+00  0.00000000E+00
  0.00000000E+00  0.00000000E+00  0.00000000E+00
  0.00000000E+00  0.00000000E+00  0.00000000E+00
  0.00000000E+00  0.00000000E+00  0.00000000E+00
  0.00000000E+00  0.00000000E+00  0.00000000E+00
  0.00000000E+00  0.00000000E+00  0.00000000E+00
  0.00000000E+00  0.00000000E+00  0.00000000E+00
  0.00000000E+00  0.00000000E+00  0.00000000E+00
  0.00000000E+00  0.00000000E+00  0.00000000E+00
  0.00000000E+00  0.00000000E+00  0.00000000E+00
  0.00000000E+00  0.00000000E+00  0.00000000E+00
  0.00000000E+00  0.00000000E+00  0.00000000E+00
  0.00000000E+00  0.00000000E+00  0.00000000E+00
  0.00000000E+00  0.00000000E+00  0.00000000E+00
  0.00000000E+00  0.00000000E+00  0.00000000E+00
  0.00000000E+00  0.00000000E+00  0.00000000E+00
  0.00000000E+00  0.00000000E+00  0.00000000E+00
  0.00000000E+00  0.00000000E+00  0.00000000E+00
  0.00000000E+00  0.00000000E+00  0.00000000E+00
  0.00000000E+00  0.00000000E+00  0.00000000E+00
  0.00000000E+00  0.00000000E+00  0.00000000E+00
  0.00000000E+00  0.00000000E+00  0.00000000E+00
  0.00000000E+00  0.00000000E+00  0.00000000E+00
  0.00000000E+00  0.00000000E+00  0.00000000E+00
  0.00000000E+00  0.00000000E+00  0.00000000E+00
  0.00000000E+00  0.00000000E+00  0.00000000E+00
  0.00000000E+00  0.00000000E+00  0.00000000E+00
  0.00000000E+00  0.00000000E+00  0.00000000E+00
  0.00000000E+00  0.00000000E+00  0.00000000E+00
  0.00000000E+00  0.00000000E+00  0.00000000E+00
  0.00000000E+00  0.00000000E+00  0.00000000E+00
  0.00000000E+00  0.00000000E+00  0.00000000E+00
  0.00000000E+00  0.00000000E+00  0.00000000E+00
  0.00000000E+00  0.00000000E+00  0.00000000E+00
  0.00000000E+00  0.00000000E+00  0.00000000E+00
  0.00000000E+00  0.00000000E+00  0.00000000E+00
  0.00000000E+00  0.00000000E+00  0.00000000E+00
  0.00000000E+00  0.00000000E+00  0.00000000E+00
  0.00000000E+00  0.00000000E+00  0.00000000E+00
  0.00000000E+00  0.00000000E+00  0.00000000E+00
  0.00000000E+00  0.00000000E+00  0.00000000E+00
  0.00000000E+00  0.00000000E+00  0.00000000E+00
  0.00000000E+00  0.00000000E+00  0.00000000E+00
  0.00000000E+00  0.00000000E+00  0.00000000E+00
  0.00000000E+00  0.00000000E+00  0.00000000E+00
  0.00000000E+00  0.00000000E+00  0.00000000E+00
  0.00000000E+00  0.00000000E+00  0.00000000E+00
  0.00000000E+00  0.00000000E+00  0.00000000E+00
  0.00000000E+00  0.00000000E+00  0.00000000E+00
  0.00000000E+00  0.00000000E+00  0.00000000E+00
  0.00000000E+00  0.00000000E+00  0.00000000E+00
  0.00000000E+00  0.00000000E+00  0.00000000E+00
  0.00000000E+00  0.00000000E+00  0.00000000E+00
  0.00000000E+00  0.00000000E+00  0.00000000E+00
  0.00000000E+00  0.00000000E+00  0.00000000E+00
  0.00000000E+00  0.00000000E+00  0.00000000E+00
  0.00000000E+00  0.00000000E+00  0.00000000E+00
  0.00000000E+00  0.00000000E+00  0.00000000E+00
  0.00000000E+00  0.00000000E+00  0.00000000E+00
  0.00000000E+00  0.00000000E+00  0.00000000E+00
  0.00000000E+00  0.00000000E+00  0.00000000E+00
  0.00000000E+00  0.00000000E+00  0.00000000E+00
  0.00000000E+00  0.00000000E+00  0.00000000E+00
  0.00000000E+00  0.00000000E+00  0.00000000E+00
  0.00000000E+00  0.00000000E+00  0.00000000E+00
  0.00000000E+00  0.00000000E+00  0.00000000E+00
  0.00000000E+00  0.00000000E+00  0.00000000E+00
  0.00000000E+00  0.00000000E+00  0.00000000E+00
  0.00000000E+00  0.00000000E+00  0.00000000E+00
  0.00000000E+00  0.00000000E+00  0.00000000E+00
  0.00000000E+00  0.00000000E+00  0.00000000E+00
  0.00000000E+00  0.00000000E+00  0.00000000E+00
  0.00000000E+00  0.00000000E+00  0.00000000E+00
  0.00000000E+00  0.00000000E+00  0.00000000E+00
  0.00000000E+00  0.00000000E+00  0.00000000E+00
  0.00000000E+00  0.00000000E+00  0.00000000E+00
  0.00000000E+00  0.00000000E+00  0.00000000E+00
  0.00000000E+00  0.00000000E+00  0.00000000E+00
  0.00000000E+00  0.00000000E+00  0.00000000E+00
  0.00000000E+00  0.00000000E+00  0.00000000E+00
  0.00000000E+00  0.00000000E+00  0.00000000E+00
  0.00000000E+00  0.00000000E+00  0.00000000E+00
  0.00000000E+00  0.00000000E+00  0.00000000E+00
  0.00000000E+00  0.00000000E+00  0.00000000E+00
  0.00000000E+00  0.00000000E+00  0.00000000E+00
  0.00000000E+00  0.00000000E+00  0.00000000E+00
  0.00000000E+00  0.00000000E+00  0.00000000E+00
  0.00000000E+00  0.00000000E+00  0.00000000E+00
  0.00000000E+00  0.00000000E+00  0.00000000E+00
  0.00000000E+00  0.00000000E+00  0.00000000E+00
  0.00000000E+00  0.00000000E+00  0.00000000E+00
  0.00000000E+00  0.00000000E+00  0.00000000E+00
  0.00000000E+00  0.00000000E+00  0.00000000E+00
  0.00000000E+00  0.00000000E+00  0.00000000E+00
  0.00000000E+00  0.00000000E+00  0.00000000E+00
  0.00000000E+00  0.00000000E+00  0.00000000E+00
  0.00000000E+00  0.00000000E+00  0.00000000E+00
  0.00000000E+00  0.00000000E+00  0.00000000E+00
  0.00000000E+00  0.00000000E+00  0.00000000E+00
  0.00000000E+00  0.00000000E+00  0.00000000E+00
  0.00000000E+00  0.00000000E+00  0.00000000E+00
  0.00000000E+00  0.00000000E+00  0.00000000E+00
  0.00000000E+00  0.00000000E+00  0.00000000E+00
  0.00000000E+00  0.00000000E+00  0.00000000E+00
  0.00000000E+00  0.00000000E+00  0.00000000E+00
  0.00000000E+00  0.00000000E+00  0.00000000E+00
  0.00000000E+00  0.00000000E+00  0.00000000E+00
  0.00000000E+00  0.00000000E+00  0.00000000E+00
  0.00000000E+00  0.00000000E+00  0.00000000E+00
  0.00000000E+00  0.00000000E+00  0.00000000E+00
  0.00000000E+00  0.00000000E+00  0.00000000E+00
  0.00000000E+00  0.00000000E+00  0.00000000E+00
  0.00000000E+00  0.00000000E+00  0.00000000E+00
  0.00000000E+00  0.00000000E+00  0.00000000E+00
  0.00000000E+00  0.00000000E+00  0.00000000E+00
  0.00000000E+00  0.00000000E+00  0.00000000E+00
  0.00000000E+00  0.00000000E+00  0.00000000E+00
  0.00000000E+00  0.00000000E+00  0.00000000E+00
  0.00000000E+00  0.00000000E+00  0.00000000E+00
  0.00000000E+00  0.00000000E+00  0.00000000E+00
  0.00000000E+00  0.00000000E+00  0.00000000E+00
  0.00000000E+00  0.00000000E+00  0.00000000E+00
  0.00000000E+00  0.00000000E+00  0.00000000E+00
  0.00000000E+00  0.00000000E+00  0.00000000E+00
  0.00000000E+00  0.00000000E+00  0.00000000E+00
  0.00000000E+00  0.00000000E+00  0.00000000E+00
  0.00000000E+00  0.00000000E+00  0.00000000E+00
  0.00000000E+00  0.00000000E+00  0.00000000E+00
  0.00000000E+00  0.00000000E+00  0.00000000E+00
  0.00000000E+00  0.00000000E+00  0.00000000E+00
  0.00000000E+00  0.00000000E+00  0.00000000E+00
  0.00000000E+00  0.00000000E+00  0.00000000E+00
  0.00000000E+00  0.00000000E+00  0.00000000E+00
  0.00000000E+00  0.00000000E+00  0.00000000E+00
  0.00000000E+00  0.00000000E+00  0.00000000E+00
  0.00000000E+00  0.00000000E+00  0.00000000E+00
  0.00000000E+00  0.00000000E+00  0.00000000E+00
  0.00000000E+00  0.00000000E+00  0.00000000E+00
  0.00000000E+00  0.00000000E+00  0.00000000E+00
  0.00000000E+00  0.00000000E+00  0.00000000E+00
  0.00000000E+00  0.00000000E+00  0.00000000E+00
  0.00000000E+00  0.00000000E+00  0.00000000E+00
  0.00000000E+00  0.00000000E+00  0.00000000E+00
  0.00000000E+00  0.00000000E+00  0.00000000E+00
  0.00000000E+00  0.00000000E+00  0.00000000E+00
  0.00000000E+00  0.00000000E+00  0.00000000E+00
  0.00000000E+00  0.00000000E+00  0.00000000E+00
  0.00000000E+00  0.00000000E+00  0.00000000E+00
  0.00000000E+00  0.00000000E+00  0.00000000E+00
  0.00000000E+00  0.00000000E+00  0.00000000E+00
  0.00000000E+00  0.00000000E+00  0.00000000E+00
  0.00000000E+00  0.00000000E+00  0.00000000E+00
  0.00000000E+00  0.00000000E+00  0.00000000E+00
  0.00000000E+00  0.00000000E+00  0.00000000E+00
  0.00000000E+00  0.00000000E+00  0.00000000E+00
  0.00000000E+00  0.00000000E+00  0.00000000E+00
  0.00000000E+00  0.00000000E+00  0.00000000E+00
  0.00000000E+00  0.00000000E+00  0.00000000E+00
  0.00000000E+00  0.00000000E+00  0.00000000E+00
  0.00000000E+00  0.00000000E+00  0.00000000E+00
  0.00000000E+00  0.00000000E+00  0.00000000E+00
  0.00000000E+00  0.00000000E+00  0.00000000E+00
  0.00000000E+00  0.00000000E+00  0.00000000E+00
  0.00000000E+00  0.00000000E+00  0.00000000E+00
  0.00000000E+00  0.00000000E+00  0.00000000E+00
  0.00000000E+00  0.00000000E+00  0.00000000E+00
  0.00000000E+00  0.00000000E+00  0.00000000E+00
  0.00000000E+00  0.00000000E+00  0.00000000E+00
  0.00000000E+00  0.00000000E+00  0.00000000E+00
  0.00000000E+00  0.00000000E+00  0.00000000E+00
  0.00000000E+00  0.00000000E+00  0.00000000E+00
  0.00000000E+00  0.00000000E+00  0.00000000E+00
  0.00000000E+00  0.00000000E+00  0.00000000E+00
  0.00000000E+00  0.00000000E+00  0.00000000E+00
  0.00000000E+00  0.00000000E+00  0.00000000E+00
  0.00000000E+00  0.00000000E+00  0.00000000E+00
  0.00000000E+00  0.00000000E+00  0.00000000E+00
  0.00000000E+00  0.00000000E+00  0.00000000E+00
  0.00000000E+00  0.00000000E+00  0.00000000E+00
  0.00000000E+00  0.00000000E+00  0.00000000E+00
  0.00000000E+00  0.00000000E+00  0.00000000E+00
  0.00000000E+00  0.00000000E+00  0.00000000E+00
  0.00000000E+00  0.00000000E+00  0.00000000E+00
  0.00000000E+00  0.00000000E+00  0.00000000E+00
  0.00000000E+00  0.00000000E+00  0.00000000E+00
  0.00000000E+00  0.00000000E+00  0.00000000E+00
  0.00000000E+00  0.00000000E+00  0.00000000E+00
  0.00000000E+00  0.00000000E+00  0.00000000E+00
  0.00000000E+00  0.00000000E+00  0.00000000E+00
  0.00000000E+00  0.00000000E+00  0.00000000E+00
  0.00000000E+00  0.00000000E+00  0.00000000E+00
  0.00000000E+00  0.00000000E+00  0.00000000E+00
  0.00000000E+00  0.00000000E+00  0.00000000E+00
  0.00000000E+00  0.00000000E+00  0.00000000E+00
  0.00000000E+00  0.00000000E+00  0.00000000E+00
  0.00000000E+00  0.00000000E+00  0.00000000E+00
  0.00000000E+00  0.00000000E+00  0.00000000E+00
  0.00000000E+00  0.00000000E+00  0.00000000E+00
  0.00000000E+00  0.00000000E+00  0.00000000E+00
  0.00000000E+00  0.00000000E+00  0.00000000E+00
  0.00000000E+00  0.00000000E+00  0.00000000E+00
  0.00000000E+00  0.00000000E+00  0.00000000E+00
  0.00000000E+00  0.00000000E+00  0.00000000E+00
  0.00000000E+00  0.00000000E+00  0.00000000E+00
  0.00000000E+00  0.00000000E+00  0.00000000E+00
  0.00000000E+00  0.00000000E+00  0.00000000E+00
  0.00000000E+00  0.00000000E+00  0.00000000E+00
  0.00000000E+00  0.00000000E+00  0.00000000E+00
  0.00000000E+00  0.00000000E+00  0.00000000E+00
  0.00000000E+00  0.00000000E+00  0.00000000E+00
  0.00000000E+00  0.00000000E+00  0.00000000E+00
  0.00000000E+00  0.00000000E+00  0.00000000E+00
  0.00000000E+00  0.00000000E+00  0.00000000E+00
  0.00000000E+00  0.00000000E+00  0.00000000E+00
  0.00000000E+00  0.00000000E+00  0.00000000E+00
  0.00000000E+00  0.00000000E+00  0.00000000E+00
  0.00000000E+00  0.00000000E+00  0.00000000E+00
  0.00000000E+00  0.00000000E+00  0.00000000E+00
  0.00000000E+00  0.00000000E+00  0.00000000E+00
  0.00000000E+00  0.00000000E+00  0.00000000E+00
  0.00000000E+00  0.00000000E+00  0.00000000E+00
  0.00000000E+00  0.00000000E+00  0.00000000E+00
  0.00000000E+00  0.00000000E+00  0.00000000E+00
  0.00000000E+00  0.00000000E+00  0.00000000E+00
  0.00000000E+00  0.00000000E+00  0.00000000E+00
  0.00000000E+00  0.00000000E+00  0.00000000E+00
  0.00000000E+00  0.00000000E+00  0.00000000E+00
  0.00000000E+00  0.00000000E+00  0.00000000E+00
  0.00000000E+00  0.00000000E+00  0.00000000E+00
  0.00000000E+00  0.00000000E+00  0.00000000E+00
