"C194 N9 F16 Co1 H2"                    
   1.00000000000000     
    22.1885166168000012    0.0000000000000000    0.0000000000000000
   -11.0944532441000003   19.2173208787999990    0.0000000000000000
    -0.0021656166000000    0.0282583989000000   25.3325456393000010
   C    N    F    Co   H 
   194     9    16     1     2
Direct
  0.9999488997407937  0.9999616933850461  0.0617645288122404
  0.0370109883068963  0.0740484069712153  0.0613176903031771
  0.9999654024180131  0.1110950059803741  0.0611922994518537
  0.0370239755557051  0.1851734601091835  0.0602613408100154
  0.9999776570035692  0.2222203956116928  0.0599141758856874
  0.0370269644176204  0.2962776844475101  0.0584950526741039
  0.9999666694134177  0.3333169618274496  0.0581886898645649
  0.0370089071944051  0.4073758355615880  0.0569510534528632
  0.9999607496536527  0.4444086600728383  0.0572432539059662
  0.0370150102239961  0.5184801873412468  0.0570534337649917
  0.9999387827367840  0.5555008182329289  0.0578743855919654
  0.0369890872204621  0.6295540707832288  0.0586364114028299
  0.9999207850957887  0.6665812712005561  0.0595039537526958
  0.0369815920072938  0.7406593293240533  0.0604470274788085
  0.9999202728160199  0.7776939108584671  0.0610070481055871
  0.0369822287790811  0.8517820590817706  0.0615648931416288
  0.9999295003840629  0.8888278951652495  0.0617490768353619
  0.0369963586542710  0.9629150275599940  0.0617774552861263
  0.1110644348161856  0.9999690281493727  0.0614272948627175
  0.1481108955865054  0.0740485649936176  0.0606476274132461
  0.1110673947456462  0.1110975000292456  0.0605572650220765
  0.1481008047754742  0.1851599926653336  0.0594776336305571
  0.1110715742289727  0.2222181275746919  0.0592863694931154
  0.1480961298970769  0.2962602212192422  0.0577973662851576
  0.1110628682991646  0.3332937866154992  0.0571952374796538
  0.1480892768381139  0.4073424513095247  0.0553905724989150
  0.1110596486323274  0.4444045875427349  0.0554317517695324
  0.1481016005265090  0.5184743289469296  0.0546934233686471
  0.1110625936216962  0.5555272989473323  0.0560187695688725
  0.1481230408577403  0.6295964829468588  0.0566776875038784
  0.1110685085083176  0.6666018275946612  0.0583329494863847
  0.1481152831820225  0.7406716505508015  0.0594174163544139
  0.1110561719996568  0.7777066218911841  0.0604913010920711
  0.1481069540717215  0.8517832303677650  0.0611370530343578
  0.1110568398609146  0.8888365003322178  0.0615560422295260
  0.1481193784296551  0.9629286629848011  0.0614620131555768
  0.2221812165847084  0.9999754192966748  0.0610574428767876
  0.2592322203567150  0.0740380267197693  0.0601920342758788
  0.2221769484059095  0.1110873854740788  0.0598103933301886
  0.2592262210274754  0.1851659262417513  0.0587392719380162
  0.2221505917564386  0.2221981114271188  0.0585308977964090
  0.2591649203328288  0.2962570724325033  0.0576598520609366
  0.2221351315612736  0.3332904757252280  0.0570483661676988
  0.2591641351025800  0.4073259464882923  0.0557066776800852
  0.2221423291596167  0.4443828893048334  0.0545253280268199
  0.2592217027715833  0.5184749671863713  0.0537352963376136
  0.2221806236433466  0.5555348814993621  0.0538264874767478
  0.2592580636659676  0.6296425354559574  0.0546789775851764
  0.2221907470650208  0.6666493932176820  0.0561854162635456
  0.2592338565436378  0.7406787367221099  0.0578678995757258
  0.2221773254722379  0.7777077512898174  0.0593029904713944
  0.2592257101617363  0.8517854170438497  0.0603795608424065
  0.2221752137868336  0.8888344615565202  0.0610442972930940
  0.2592290247563440  0.9629287571813876  0.0611388325357467
  0.3332877733800998  0.9999726531435442  0.0608531432987007
  0.3703450977795129  0.0740550239971398  0.0601273839357788
  0.3332885377620372  0.1110907471110494  0.0595900917780696
  0.3703401009034550  0.1851550086760483  0.0584121094900141
  0.3332689314052857  0.2221886147906318  0.0581216871962411
  0.3703120995201417  0.2962559870000518  0.0576825682078734
  0.3332314686588376  0.3332805152505216  0.0576113705404993
  0.3702465735141587  0.4073394587761001  0.0575496144527179
  0.3332323182440931  0.4443884414341497  0.0562252229879974
  0.3703305523933196  0.5184896233381266  0.0556839422314539
  0.3332949140643109  0.5555394494074122  0.0544125734184817
  0.3703716713775407  0.6296110334435667  0.0550987129562159
  0.3333165583614601  0.6666590858178836  0.0553147044321420
  0.3703548024472241  0.7406913662507932  0.0572025570433112
  0.3332974031998930  0.7777083123553794  0.0582736254056471
  0.3703370113990587  0.8517763526898250  0.0597696631410116
  0.3332909722475321  0.8888291481760433  0.0604575056643100
  0.3703341318484021  0.9629117587332274  0.0608277642615818
  0.4443926590160530  0.9999615555498664  0.0606510450901396
  0.4814383082117928  0.0740474560222069  0.0599592198855419
  0.4443923526392908  0.1111008196942080  0.0594574660994098
  0.4814222368398688  0.1851497354158056  0.0579945617541640
  0.4443797536069098  0.2221791111590861  0.0576092319257526
  0.4814262364536432  0.2962377778186820  0.0566035165784058
  0.4443798961030652  0.3332697013447046  0.0571360446212452
  0.4814610073383250  0.4073196597652924  0.0573906081133799
  0.4443678507273745  0.4443666849274521  0.0582282314036462
  0.4814614899938405  0.5185172975273318  0.0580459111131333
  0.4443756909375978  0.5555357603751077  0.0568992433771172
  0.4814515118421383  0.6296017963893377  0.0568144101702117
  0.4444036096134596  0.6666230723671305  0.0564285475890713
  0.4814434620490431  0.7406782721523228  0.0576930478077884
  0.4444016303953262  0.7777005730611108  0.0582521223357517
  0.4814341182096555  0.8517552694151505  0.0597139978773669
  0.4443888370017461  0.8888091507376430  0.0602098330196696
  0.4814365951456949  0.9629001724945923  0.0606935752299052
  0.5554933752200668  0.9999474087747799  0.0607248779743799
  0.5925360344603021  0.0740285275972852  0.0601405567093138
  0.5554883485786846  0.1110796866848531  0.0593887603143060
  0.5925286026717487  0.1851453717876055  0.0578152998339831
  0.5554672295550631  0.2221641100480198  0.0568850989602865
  0.5925052955785404  0.2962010033175844  0.0552730755654736
  0.5554526017201695  0.3332558311763307  0.0554110649941180
  0.5925343200766520  0.4073286136302059  0.0551211731427230
  0.5555043678106983  0.4443737772693410  0.0564148669100106
  0.5925888850107128  0.5184728906646967  0.0569496819908366
  0.5555642513795291  0.5555245757464107  0.0577594702923037
  0.5925808562928907  0.6295825310240346  0.0577708784841491
  0.5555008450689414  0.6666010418356976  0.0576125946657982
  0.5925485968265534  0.7406737176648264  0.0581562393586879
  0.5554838080746194  0.7777026087298324  0.0585079611518680
  0.5925418382664134  0.8517701153893285  0.0597238658373200
  0.5554832253517219  0.8888025875634469  0.0602716234352201
  0.5925372218159310  0.9628858622268481  0.0608372568768161
  0.6665969964919114  0.9999320260156068  0.0610116503752991
  0.7036535326792119  0.0740296639188571  0.0607439376866949
  0.6666010195609573  0.1110760203773893  0.0599821354181813
  0.7036479269452443  0.1851507952876901  0.0588029113201429
  0.6665887494711100  0.2221776760611291  0.0573667404946860
  0.7036369964965203  0.2962131428951977  0.0558205858353205
  0.6665649780614302  0.3332314225059889  0.0546420766750728
  0.7036496896595708  0.4073506544031744  0.0542375220738620
  0.6666062102404311  0.4444026235040468  0.0545654283800872
  0.7036732393822760  0.5184792055061251  0.0556320203656639
  0.6666412777041444  0.5555257108474265  0.0567077587797016
  0.7036747866634201  0.6295673365290853  0.0578424800065847
  0.6666398034823828  0.6665997052904089  0.0580794358485619
  0.7036672386773759  0.7406671810045822  0.0588071242844492
  0.6665923630507891  0.7776979649337932  0.0588532214987509
  0.7036482984340395  0.8517762576620385  0.0598965738525266
  0.6665922066296588  0.8888202465718678  0.0602588831114375
  0.7036455189768631  0.9628854063358290  0.0610105016814302
  0.7777062836632922  0.9999356310804899  0.0613492028839673
  0.8147695288559049  0.0740279024248025  0.0613015331772644
  0.7777193747445779  0.1110793650725412  0.0607880119338944
  0.8147688059486242  0.1851552031537054  0.0600312060387012
  0.7777072133078491  0.2221885448371452  0.0589175266319018
  0.8147583702742054  0.2962619297330917  0.0578697335977694
  0.7777042930816833  0.3332749963526425  0.0563484299880415
  0.8147630189444328  0.4073446634907398  0.0560104903170711
  0.7777136960841275  0.4444029719590077  0.0550962077468782
  0.8147538472312448  0.5184666140309133  0.0562058284110307
  0.7777194903778195  0.5555161941430242  0.0564442304917421
  0.8147524434196498  0.6295654893136344  0.0581696975516337
  0.7777175355573220  0.6665978000799200  0.0586210197013628
  0.8147498142168388  0.7406433761935531  0.0598209949321031
  0.7777156673719148  0.7777029923658887  0.0598046754641359
  0.8147585070375953  0.8517709530935917  0.0607050856830327
  0.7777113462995544  0.8888143534240029  0.0607162486251482
  0.8147619983907859  0.9628960501133221  0.0613931630447411
  0.8888293839614150  0.9999500749865433  0.0617037414351671
  0.9258940999269498  0.0740359104460850  0.0615454602610370
  0.8888417794701056  0.1110819806846237  0.0612627635031373
  0.9259052788159821  0.1851706523457466  0.0605411430104823
  0.8888424610922954  0.2222041047944003  0.0599327522261248
  0.9259006669634147  0.2962789923386921  0.0589260839555124
  0.8888309062090656  0.3333076142489446  0.0581732462154818
  0.9258806356454201  0.4073651766414059  0.0575955658426679
  0.8888066297690500  0.4443881304279103  0.0570663012925223
  0.9258638390483753  0.5184615963078656  0.0575631089330813
  0.8888112951339124  0.5554927824596376  0.0575950220251613
  0.9258510283346979  0.6295426632111187  0.0589000038887662
  0.8887890683216568  0.6665814384288709  0.0592885755233681
  0.9258444038129525  0.7406412144784795  0.0604979170860389
  0.8887969147848054  0.7776870523786741  0.0607195043833997
  0.9258600915379773  0.8517710347569931  0.0614378854439295
  0.8888134239994940  0.8888169780168340  0.0614405401891673
  0.9258757481327606  0.9629028064463938  0.0617731383946207
  0.2660498188881064  0.1330450270429751  0.1949701868890941
  0.3355668227392670  0.1871258639156252  0.1931108810767839
  0.3491172180289297  0.2558247614421774  0.1914600035295138
  0.2937679921566314  0.2704520778814086  0.1911847575527332
  0.2244824232585998  0.2164592278801933  0.1929169312574004
  0.2109707121193765  0.1475876323912928  0.1950321122240979
  0.3259259342420293  0.3461165210411536  0.1888066130066335
  0.4133778103632935  0.3230155478205674  0.1894796811566906
  0.3181794787328087  0.4462594983574277  0.1866439169885865
  0.3948615186872004  0.5606677301639635  0.1870591052827422
  0.2772904443443380  0.4813283900488372  0.1864675047437530
  0.3257837731453108  0.5537135578968204  0.1866335534820749
  0.3030789265271210  0.6022403315732490  0.1862574994800781
  0.2312114909630907  0.5776592800338136  0.1858864458494054
  0.1829032396840660  0.5056121436691328  0.1859281980023155
  0.2056708790607189  0.4568911361493235  0.1861117562224024
  0.5334101556858997  0.3899231008763735  0.1889501820542563
  0.6103457490814534  0.5045092838315597  0.1897078686860709
  0.6252288406239543  0.3484299903653039  0.1872388760968633
  0.6970473397373809  0.3729969114322174  0.1866049847530391
  0.7453926431638536  0.4450707898540998  0.1871681290693274
  0.7226696174244012  0.4937809330146834  0.1883633180492481
  0.6510173331764975  0.4693467274602128  0.1891455623643026
  0.6024517413855506  0.3969433593015168  0.1885957699603722
  0.6025558935358433  0.6045897030711274  0.1909778370521948
  0.5148374518043610  0.6275261871540394  0.1901040062106247
  0.6344953586928952  0.6801207945845889  0.1927032845536445
  0.7038391272736817  0.7340801429159498  0.1939422252758902
  0.7174327932303797  0.8029644781134380  0.1951304832532870
  0.6623735274064373  0.8175722163093369  0.1947623821555879
  0.5928500859931702  0.7635554424661706  0.1932452547518935
  0.5791147262112801  0.6947194458677970  0.1922722608649678
  0.3979046672004927  0.3763593328383195  0.1875439663969942
  0.2884733876142604  0.3775482897191793  0.1881566668218113
  0.3886566802941331  0.4952515090776899  0.1859780840730139
  0.4756717525367549  0.3283796107964889  0.1898648538210921
  0.5396356469554533  0.4555776192812075  0.1888196240819511
  0.6400425005009893  0.5731987974460111  0.1911018955124177
  0.5304312278148942  0.5740952256881897  0.1892005463598068
  0.4525299017557387  0.6221654583747167  0.1891920233226045
  0.4586507613842343  0.4726207303681207  0.2676270964800054
  0.2508869381433882  0.0658732531627280  0.1965524197207458
  0.3867136681078023  0.1707634207485285  0.1927843887187706
  0.1700872800919129  0.2279784402457210  0.1925244344317605
  0.1446121742821944  0.0939711032672008  0.1967975512881566
  0.3474884483767866  0.6717591155464788  0.1858759775027607
  0.2072277607370054  0.6230415135123195  0.1849571606655971
  0.1140098106834557  0.4840126167879006  0.1853488364005997
  0.1575932615662197  0.3883288389687110  0.1856427388619366
  0.5808034362221406  0.2789574635897552  0.1860593401042649
  0.7210109220461405  0.3276720985688755  0.1847398012567538
  0.8142843717653321  0.4666715975719811  0.1859933818223283
  0.7707139895270956  0.5623706729786662  0.1882861400062339
  0.7581205529747450  0.7223557296883740  0.1936616249079819
  0.7838555298752468  0.8565847376240114  0.1961961214199306
  0.6776515557235925  0.8847540060554309  0.1955502020778042
  0.5417838089895000  0.7800217125927063  0.1925046174467298
  0.4642038142220954  0.4753093893301426  0.1914900653914344
  0.4810671928226427  0.4434303514043805  0.2790331738551899
  0.4954062869985520  0.5222644567491272  0.2795748996021459
 
  0.00000000E+00  0.00000000E+00  0.00000000E+00
  0.00000000E+00  0.00000000E+00  0.00000000E+00
  0.00000000E+00  0.00000000E+00  0.00000000E+00
  0.00000000E+00  0.00000000E+00  0.00000000E+00
  0.00000000E+00  0.00000000E+00  0.00000000E+00
  0.00000000E+00  0.00000000E+00  0.00000000E+00
  0.00000000E+00  0.00000000E+00  0.00000000E+00
  0.00000000E+00  0.00000000E+00  0.00000000E+00
  0.00000000E+00  0.00000000E+00  0.00000000E+00
  0.00000000E+00  0.00000000E+00  0.00000000E+00
  0.00000000E+00  0.00000000E+00  0.00000000E+00
  0.00000000E+00  0.00000000E+00  0.00000000E+00
  0.00000000E+00  0.00000000E+00  0.00000000E+00
  0.00000000E+00  0.00000000E+00  0.00000000E+00
  0.00000000E+00  0.00000000E+00  0.00000000E+00
  0.00000000E+00  0.00000000E+00  0.00000000E+00
  0.00000000E+00  0.00000000E+00  0.00000000E+00
  0.00000000E+00  0.00000000E+00  0.00000000E+00
  0.00000000E+00  0.00000000E+00  0.00000000E+00
  0.00000000E+00  0.00000000E+00  0.00000000E+00
  0.00000000E+00  0.00000000E+00  0.00000000E+00
  0.00000000E+00  0.00000000E+00  0.00000000E+00
  0.00000000E+00  0.00000000E+00  0.00000000E+00
  0.00000000E+00  0.00000000E+00  0.00000000E+00
  0.00000000E+00  0.00000000E+00  0.00000000E+00
  0.00000000E+00  0.00000000E+00  0.00000000E+00
  0.00000000E+00  0.00000000E+00  0.00000000E+00
  0.00000000E+00  0.00000000E+00  0.00000000E+00
  0.00000000E+00  0.00000000E+00  0.00000000E+00
  0.00000000E+00  0.00000000E+00  0.00000000E+00
  0.00000000E+00  0.00000000E+00  0.00000000E+00
  0.00000000E+00  0.00000000E+00  0.00000000E+00
  0.00000000E+00  0.00000000E+00  0.00000000E+00
  0.00000000E+00  0.00000000E+00  0.00000000E+00
  0.00000000E+00  0.00000000E+00  0.00000000E+00
  0.00000000E+00  0.00000000E+00  0.00000000E+00
  0.00000000E+00  0.00000000E+00  0.00000000E+00
  0.00000000E+00  0.00000000E+00  0.00000000E+00
  0.00000000E+00  0.00000000E+00  0.00000000E+00
  0.00000000E+00  0.00000000E+00  0.00000000E+00
  0.00000000E+00  0.00000000E+00  0.00000000E+00
  0.00000000E+00  0.00000000E+00  0.00000000E+00
  0.00000000E+00  0.00000000E+00  0.00000000E+00
  0.00000000E+00  0.00000000E+00  0.00000000E+00
  0.00000000E+00  0.00000000E+00  0.00000000E+00
  0.00000000E+00  0.00000000E+00  0.00000000E+00
  0.00000000E+00  0.00000000E+00  0.00000000E+00
  0.00000000E+00  0.00000000E+00  0.00000000E+00
  0.00000000E+00  0.00000000E+00  0.00000000E+00
  0.00000000E+00  0.00000000E+00  0.00000000E+00
  0.00000000E+00  0.00000000E+00  0.00000000E+00
  0.00000000E+00  0.00000000E+00  0.00000000E+00
  0.00000000E+00  0.00000000E+00  0.00000000E+00
  0.00000000E+00  0.00000000E+00  0.00000000E+00
  0.00000000E+00  0.00000000E+00  0.00000000E+00
  0.00000000E+00  0.00000000E+00  0.00000000E+00
  0.00000000E+00  0.00000000E+00  0.00000000E+00
  0.00000000E+00  0.00000000E+00  0.00000000E+00
  0.00000000E+00  0.00000000E+00  0.00000000E+00
  0.00000000E+00  0.00000000E+00  0.00000000E+00
  0.00000000E+00  0.00000000E+00  0.00000000E+00
  0.00000000E+00  0.00000000E+00  0.00000000E+00
  0.00000000E+00  0.00000000E+00  0.00000000E+00
  0.00000000E+00  0.00000000E+00  0.00000000E+00
  0.00000000E+00  0.00000000E+00  0.00000000E+00
  0.00000000E+00  0.00000000E+00  0.00000000E+00
  0.00000000E+00  0.00000000E+00  0.00000000E+00
  0.00000000E+00  0.00000000E+00  0.00000000E+00
  0.00000000E+00  0.00000000E+00  0.00000000E+00
  0.00000000E+00  0.00000000E+00  0.00000000E+00
  0.00000000E+00  0.00000000E+00  0.00000000E+00
  0.00000000E+00  0.00000000E+00  0.00000000E+00
  0.00000000E+00  0.00000000E+00  0.00000000E+00
  0.00000000E+00  0.00000000E+00  0.00000000E+00
  0.00000000E+00  0.00000000E+00  0.00000000E+00
  0.00000000E+00  0.00000000E+00  0.00000000E+00
  0.00000000E+00  0.00000000E+00  0.00000000E+00
  0.00000000E+00  0.00000000E+00  0.00000000E+00
  0.00000000E+00  0.00000000E+00  0.00000000E+00
  0.00000000E+00  0.00000000E+00  0.00000000E+00
  0.00000000E+00  0.00000000E+00  0.00000000E+00
  0.00000000E+00  0.00000000E+00  0.00000000E+00
  0.00000000E+00  0.00000000E+00  0.00000000E+00
  0.00000000E+00  0.00000000E+00  0.00000000E+00
  0.00000000E+00  0.00000000E+00  0.00000000E+00
  0.00000000E+00  0.00000000E+00  0.00000000E+00
  0.00000000E+00  0.00000000E+00  0.00000000E+00
  0.00000000E+00  0.00000000E+00  0.00000000E+00
  0.00000000E+00  0.00000000E+00  0.00000000E+00
  0.00000000E+00  0.00000000E+00  0.00000000E+00
  0.00000000E+00  0.00000000E+00  0.00000000E+00
  0.00000000E+00  0.00000000E+00  0.00000000E+00
  0.00000000E+00  0.00000000E+00  0.00000000E+00
  0.00000000E+00  0.00000000E+00  0.00000000E+00
  0.00000000E+00  0.00000000E+00  0.00000000E+00
  0.00000000E+00  0.00000000E+00  0.00000000E+00
  0.00000000E+00  0.00000000E+00  0.00000000E+00
  0.00000000E+00  0.00000000E+00  0.00000000E+00
  0.00000000E+00  0.00000000E+00  0.00000000E+00
  0.00000000E+00  0.00000000E+00  0.00000000E+00
  0.00000000E+00  0.00000000E+00  0.00000000E+00
  0.00000000E+00  0.00000000E+00  0.00000000E+00
  0.00000000E+00  0.00000000E+00  0.00000000E+00
  0.00000000E+00  0.00000000E+00  0.00000000E+00
  0.00000000E+00  0.00000000E+00  0.00000000E+00
  0.00000000E+00  0.00000000E+00  0.00000000E+00
  0.00000000E+00  0.00000000E+00  0.00000000E+00
  0.00000000E+00  0.00000000E+00  0.00000000E+00
  0.00000000E+00  0.00000000E+00  0.00000000E+00
  0.00000000E+00  0.00000000E+00  0.00000000E+00
  0.00000000E+00  0.00000000E+00  0.00000000E+00
  0.00000000E+00  0.00000000E+00  0.00000000E+00
  0.00000000E+00  0.00000000E+00  0.00000000E+00
  0.00000000E+00  0.00000000E+00  0.00000000E+00
  0.00000000E+00  0.00000000E+00  0.00000000E+00
  0.00000000E+00  0.00000000E+00  0.00000000E+00
  0.00000000E+00  0.00000000E+00  0.00000000E+00
  0.00000000E+00  0.00000000E+00  0.00000000E+00
  0.00000000E+00  0.00000000E+00  0.00000000E+00
  0.00000000E+00  0.00000000E+00  0.00000000E+00
  0.00000000E+00  0.00000000E+00  0.00000000E+00
  0.00000000E+00  0.00000000E+00  0.00000000E+00
  0.00000000E+00  0.00000000E+00  0.00000000E+00
  0.00000000E+00  0.00000000E+00  0.00000000E+00
  0.00000000E+00  0.00000000E+00  0.00000000E+00
  0.00000000E+00  0.00000000E+00  0.00000000E+00
  0.00000000E+00  0.00000000E+00  0.00000000E+00
  0.00000000E+00  0.00000000E+00  0.00000000E+00
  0.00000000E+00  0.00000000E+00  0.00000000E+00
  0.00000000E+00  0.00000000E+00  0.00000000E+00
  0.00000000E+00  0.00000000E+00  0.00000000E+00
  0.00000000E+00  0.00000000E+00  0.00000000E+00
  0.00000000E+00  0.00000000E+00  0.00000000E+00
  0.00000000E+00  0.00000000E+00  0.00000000E+00
  0.00000000E+00  0.00000000E+00  0.00000000E+00
  0.00000000E+00  0.00000000E+00  0.00000000E+00
  0.00000000E+00  0.00000000E+00  0.00000000E+00
  0.00000000E+00  0.00000000E+00  0.00000000E+00
  0.00000000E+00  0.00000000E+00  0.00000000E+00
  0.00000000E+00  0.00000000E+00  0.00000000E+00
  0.00000000E+00  0.00000000E+00  0.00000000E+00
  0.00000000E+00  0.00000000E+00  0.00000000E+00
  0.00000000E+00  0.00000000E+00  0.00000000E+00
  0.00000000E+00  0.00000000E+00  0.00000000E+00
  0.00000000E+00  0.00000000E+00  0.00000000E+00
  0.00000000E+00  0.00000000E+00  0.00000000E+00
  0.00000000E+00  0.00000000E+00  0.00000000E+00
  0.00000000E+00  0.00000000E+00  0.00000000E+00
  0.00000000E+00  0.00000000E+00  0.00000000E+00
  0.00000000E+00  0.00000000E+00  0.00000000E+00
  0.00000000E+00  0.00000000E+00  0.00000000E+00
  0.00000000E+00  0.00000000E+00  0.00000000E+00
  0.00000000E+00  0.00000000E+00  0.00000000E+00
  0.00000000E+00  0.00000000E+00  0.00000000E+00
  0.00000000E+00  0.00000000E+00  0.00000000E+00
  0.00000000E+00  0.00000000E+00  0.00000000E+00
  0.00000000E+00  0.00000000E+00  0.00000000E+00
  0.00000000E+00  0.00000000E+00  0.00000000E+00
  0.00000000E+00  0.00000000E+00  0.00000000E+00
  0.00000000E+00  0.00000000E+00  0.00000000E+00
  0.00000000E+00  0.00000000E+00  0.00000000E+00
  0.00000000E+00  0.00000000E+00  0.00000000E+00
  0.00000000E+00  0.00000000E+00  0.00000000E+00
  0.00000000E+00  0.00000000E+00  0.00000000E+00
  0.00000000E+00  0.00000000E+00  0.00000000E+00
  0.00000000E+00  0.00000000E+00  0.00000000E+00
  0.00000000E+00  0.00000000E+00  0.00000000E+00
  0.00000000E+00  0.00000000E+00  0.00000000E+00
  0.00000000E+00  0.00000000E+00  0.00000000E+00
  0.00000000E+00  0.00000000E+00  0.00000000E+00
  0.00000000E+00  0.00000000E+00  0.00000000E+00
  0.00000000E+00  0.00000000E+00  0.00000000E+00
  0.00000000E+00  0.00000000E+00  0.00000000E+00
  0.00000000E+00  0.00000000E+00  0.00000000E+00
  0.00000000E+00  0.00000000E+00  0.00000000E+00
  0.00000000E+00  0.00000000E+00  0.00000000E+00
  0.00000000E+00  0.00000000E+00  0.00000000E+00
  0.00000000E+00  0.00000000E+00  0.00000000E+00
  0.00000000E+00  0.00000000E+00  0.00000000E+00
  0.00000000E+00  0.00000000E+00  0.00000000E+00
  0.00000000E+00  0.00000000E+00  0.00000000E+00
  0.00000000E+00  0.00000000E+00  0.00000000E+00
  0.00000000E+00  0.00000000E+00  0.00000000E+00
  0.00000000E+00  0.00000000E+00  0.00000000E+00
  0.00000000E+00  0.00000000E+00  0.00000000E+00
  0.00000000E+00  0.00000000E+00  0.00000000E+00
  0.00000000E+00  0.00000000E+00  0.00000000E+00
  0.00000000E+00  0.00000000E+00  0.00000000E+00
  0.00000000E+00  0.00000000E+00  0.00000000E+00
  0.00000000E+00  0.00000000E+00  0.00000000E+00
  0.00000000E+00  0.00000000E+00  0.00000000E+00
  0.00000000E+00  0.00000000E+00  0.00000000E+00
  0.00000000E+00  0.00000000E+00  0.00000000E+00
  0.00000000E+00  0.00000000E+00  0.00000000E+00
  0.00000000E+00  0.00000000E+00  0.00000000E+00
  0.00000000E+00  0.00000000E+00  0.00000000E+00
  0.00000000E+00  0.00000000E+00  0.00000000E+00
  0.00000000E+00  0.00000000E+00  0.00000000E+00
  0.00000000E+00  0.00000000E+00  0.00000000E+00
  0.00000000E+00  0.00000000E+00  0.00000000E+00
  0.00000000E+00  0.00000000E+00  0.00000000E+00
  0.00000000E+00  0.00000000E+00  0.00000000E+00
  0.00000000E+00  0.00000000E+00  0.00000000E+00
  0.00000000E+00  0.00000000E+00  0.00000000E+00
  0.00000000E+00  0.00000000E+00  0.00000000E+00
  0.00000000E+00  0.00000000E+00  0.00000000E+00
  0.00000000E+00  0.00000000E+00  0.00000000E+00
  0.00000000E+00  0.00000000E+00  0.00000000E+00
  0.00000000E+00  0.00000000E+00  0.00000000E+00
  0.00000000E+00  0.00000000E+00  0.00000000E+00
  0.00000000E+00  0.00000000E+00  0.00000000E+00
  0.00000000E+00  0.00000000E+00  0.00000000E+00
  0.00000000E+00  0.00000000E+00  0.00000000E+00
  0.00000000E+00  0.00000000E+00  0.00000000E+00
  0.00000000E+00  0.00000000E+00  0.00000000E+00
  0.00000000E+00  0.00000000E+00  0.00000000E+00
  0.00000000E+00  0.00000000E+00  0.00000000E+00
  0.00000000E+00  0.00000000E+00  0.00000000E+00
  0.00000000E+00  0.00000000E+00  0.00000000E+00
  0.00000000E+00  0.00000000E+00  0.00000000E+00
  0.00000000E+00  0.00000000E+00  0.00000000E+00
  0.00000000E+00  0.00000000E+00  0.00000000E+00
