"C194 N12 H20 Co1"                      
   1.00000000000000     
    22.2375888824000008    0.0000000000000000    0.0000000000000000
   -11.1192774548000006   19.2587626171000004    0.0000000000000000
     0.0043810605000000    0.0945822415000000   25.3474393541000005
   C    N    H    Co
   194    12    20     1
Direct
  0.9999646831171560  0.9999459016210182  0.0622050560749514
  0.0370469090600949  0.0740438726228021  0.0619992905729632
  0.9999681569853820  0.1110674830342546  0.0618155506398423
  0.0370437992526860  0.1851744261605361  0.0610582909855140
  0.9999820853601662  0.2222072100212316  0.0605568498445592
  0.0370354908213599  0.2962856056348002  0.0593538974158818
  0.9999769842250998  0.3333032265121787  0.0590005966628695
  0.0370585018843599  0.4073903445175802  0.0579754541425146
  0.9999673273354617  0.4443944078306927  0.0582867778376439
  0.0370242344518985  0.5184708522532375  0.0581899290957395
  0.9999591793776972  0.5554938667866764  0.0587441524431540
  0.0369997401789419  0.6295575179442778  0.0592923817390343
  0.9999330559912281  0.6665885694112887  0.0597675220003211
  0.0369802334497606  0.7406644858921041  0.0604609689921389
  0.9999235225344805  0.7776950937144917  0.0609033290333159
  0.0369902316131459  0.8517919902867064  0.0614519706212491
  0.9999443977306157  0.8888216853035971  0.0618245629737615
  0.0370246069379974  0.9629200934191715  0.0620462333537475
  0.1111235129537107  0.0000120240666206  0.0617391903079465
  0.1482191251315257  0.0741090017562698  0.0612953929398614
  0.1111677218653000  0.1111363734614272  0.0614664516730912
  0.1482146129879567  0.1852115883701231  0.0606211257278844
  0.1111588750891599  0.2222429599428679  0.0603921035402806
  0.1481844535864454  0.2963153256317526  0.0590328340787138
  0.1111334043234891  0.3333491115387446  0.0583203477417555
  0.1481570739223983  0.4073858957698135  0.0566011323228466
  0.1111219293563011  0.4444049530990526  0.0566163383314660
  0.1481786772043350  0.5184611269841355  0.0560551394076398
  0.1111304014621552  0.5554708795235044  0.0574187400280834
  0.1481369314319565  0.6295389316032356  0.0581579540145114
  0.1110820783165423  0.6665730572328812  0.0592569658322688
  0.1481082729410375  0.7406637619390608  0.0599452557349665
  0.1110704331282832  0.7777083183467823  0.0605532204584165
  0.1481170590768812  0.8517916449366680  0.0610068363451433
  0.1110847212590116  0.8888545596230628  0.0614185096200330
  0.1481491371565582  0.9629489968668921  0.0615255295773096
  0.2222368387333589  0.0000381505351683  0.0611296026813406
  0.2592714494576924  0.0741228149626352  0.0605707924012790
  0.2222757174933889  0.1111742444888222  0.0604924558345914
  0.2592879395186429  0.1852156785790768  0.0598579389859921
  0.2222626712399176  0.2222495095391963  0.0598107229812683
  0.2592451186025144  0.2962940269901040  0.0589339291912268
  0.2222509928221115  0.3333500742823148  0.0583051257283245
  0.2592339096883336  0.4073838908730352  0.0568387723566488
  0.2222183714515538  0.4444056460892583  0.0558453825436231
  0.2592519729530522  0.5184572122235664  0.0551712135839466
  0.2222194351419517  0.5554620557882899  0.0553195266752411
  0.2592613374467021  0.6295271924136685  0.0562380741184469
  0.2222318582098453  0.6665548884620378  0.0577514386651927
  0.2592275998806173  0.7406282629515246  0.0590123093501020
  0.2221873375034775  0.7776959864693325  0.0599212602145727
  0.2592256696585409  0.8517830657213352  0.0605069437515979
  0.2221903129522502  0.8888426441042014  0.0609261680389324
  0.2592395772130374  0.9629490116624027  0.0610184436877148
  0.3333115818612669  0.9999910078294363  0.0607467475509011
  0.3703282310107028  0.0740978040132489  0.0603107383657289
  0.3333224183942249  0.1111650912659030  0.0600480589110859
  0.3703303197748369  0.1852244873312898  0.0593348654206451
  0.3333132653004967  0.2222527658467968  0.0592458973212828
  0.3703540066562354  0.2963004014112229  0.0587162412475735
  0.3333113130421097  0.3333346932629411  0.0585948693441551
  0.3702932281715903  0.4073605490773957  0.0580955774447744
  0.3332934029325756  0.4444096951747909  0.0570857787474779
  0.3703594665478462  0.5184832768623906  0.0566053762772825
  0.3332856798084336  0.5554726478625511  0.0557765179575682
  0.3703658176471976  0.6295170559789369  0.0564348889692283
  0.3333125348584218  0.6665402806498690  0.0567159379623945
  0.3703410545416901  0.7405980210313103  0.0582966939380114
  0.3333155564311809  0.7776703195054608  0.0591882351909234
  0.3703438236516803  0.8517747255646455  0.0601099546143331
  0.3333061639613817  0.8888267899633320  0.0604962646411593
  0.3703350297376389  0.9629179203887688  0.0606540855868687
  0.4443984484644190  0.9999399383042729  0.0604951534652045
  0.4814202887691081  0.0740435376891639  0.0600930294381286
  0.4444092509662880  0.1111222780214618  0.0598439242634825
  0.4814349727840792  0.1852142352597710  0.0588094510522836
  0.4443981411153928  0.2222713857410383  0.0586224959571737
  0.4814674859394117  0.2963254717452770  0.0576303460602929
  0.4444045593786470  0.3333294456874114  0.0579769462370976
  0.4814840553509114  0.4073434458659051  0.0578091659964670
  0.4443996503402232  0.4443797939344947  0.0583907610551435
  0.4814805809041971  0.5185033209842445  0.0580864585597922
  0.4443937307653343  0.5555089877212822  0.0573879245457150
  0.4814763855100779  0.6295290184689932  0.0575076901060001
  0.4443899784609968  0.6665118390402611  0.0575166898664179
  0.4814492066765013  0.7405723854233770  0.0587389101949043
  0.4444175250245550  0.7776250339886204  0.0591644434851517
  0.4814352154215200  0.8517195972949523  0.0601533168889148
  0.4444139755213570  0.8887937122485212  0.0603502782595342
  0.4814341218847744  0.9628917333657370  0.0605551665103405
  0.5555010714277486  0.9999155855135129  0.0606259342298188
  0.5925309726306622  0.0740083692302989  0.0602641402766508
  0.5554925450735340  0.1110710221004965  0.0597592938620153
  0.5925146872858420  0.1851752766143733  0.0586922341324438
  0.5554969108431109  0.2222495267353466  0.0578476516139119
  0.5925348226174663  0.2963211124494194  0.0563921897618584
  0.5554953198958046  0.3333406781813437  0.0564312470465040
  0.5925710188679787  0.4073927758935625  0.0559240737463185
  0.5555158379487963  0.4443904003019981  0.0568419738274741
  0.5925658829907405  0.5184536191828215  0.0571231542519612
  0.5555651671099042  0.5555016938789379  0.0577792246802176
  0.5925704044196252  0.6295319623281870  0.0580897599487002
  0.5555200039489421  0.6665434582750791  0.0581776748368199
  0.5925611455106363  0.7405887002198526  0.0589222879154150
  0.5555334137762031  0.7776117738129784  0.0593449312934027
  0.5925206060874046  0.8516603943798557  0.0602693357442021
  0.5555039627249343  0.8887369308393716  0.0605523158107175
  0.5925208942837727  0.9628437548253004  0.0608383089943558
  0.6665963713112646  0.9998889095411201  0.0610393511202147
  0.7036381188475644  0.0739918318798729  0.0607980708812335
  0.6666053738291069  0.1110565728200328  0.0602426170015207
  0.7036415944464665  0.1851570011606611  0.0595337071955200
  0.6666112394315462  0.2222306916856027  0.0585100151215130
  0.7036073310407005  0.2963122091000088  0.0572380916914810
  0.6665754969112569  0.3333495108112956  0.0558441030775398
  0.7036218016002991  0.4074149766390249  0.0551888419094908
  0.6666028658676098  0.4444251557448311  0.0553014037957666
  0.7036367701219248  0.5184802466218059  0.0560845528121448
  0.6666316065328175  0.5555007966035390  0.0569502415103855
  0.7036306860609542  0.6295323112508058  0.0581478043823722
  0.6666218307743463  0.6665644854342361  0.0585797252862577
  0.7036122699168885  0.7405980110331001  0.0595171512670234
  0.6665715066232138  0.7776074861958335  0.0596376974654476
  0.7035733058421130  0.8516481123617012  0.0605604879104931
  0.6665802099242342  0.8887055923525082  0.0607612995370630
  0.7036054822280420  0.9627986203249463  0.0612414568732902
  0.7776832732995800  0.9998774799183039  0.0615741212133756
  0.8147392748428430  0.0739816502495572  0.0613979761525059
  0.7777158304802967  0.1110457303211092  0.0608872630519031
  0.8147568095053188  0.1851352085645246  0.0603490499426016
  0.7777212739527499  0.2221923174838025  0.0596174913679874
  0.8147420596020112  0.2962830007894084  0.0589126682539955
  0.7776869131526283  0.3333275637721727  0.0577595273792397
  0.8147048569246422  0.4074072412337983  0.0571933979468255
  0.7776638462854990  0.4444259201799312  0.0559752975403356
  0.8147128995554880  0.5184681192316987  0.0567680501832442
  0.7776777267833808  0.5554991751900999  0.0568427783146035
  0.8146907970468291  0.6295383130142369  0.0583787761587189
  0.7776665827421141  0.6665674640000177  0.0588354585616244
  0.8146765863830083  0.7406101008299615  0.0600859947345924
  0.7776431664276302  0.7776170886570029  0.0603578888237521
  0.8146696284115791  0.8516687820866480  0.0613105778499090
  0.7776321156198733  0.8887119830826720  0.0613117385523481
  0.8147014802019044  0.9628030923020106  0.0617838957020496
  0.8888015415571786  0.9998967803421053  0.0620761069451916
  0.9258669329737899  0.0739952140854072  0.0619073407553259
  0.8888333603525425  0.1110469041008457  0.0614708493354286
  0.9258880137651246  0.1851410583912383  0.0608752659783676
  0.8888374242753514  0.2221803376941835  0.0603054086653145
  0.9258846498841322  0.2962661758312350  0.0595594583200807
  0.8888265834130777  0.3332993967460709  0.0590424614562437
  0.9258712149896553  0.4073700778824474  0.0585880764155746
  0.8888013471840992  0.4443996806960442  0.0580954333929213
  0.9258569666316774  0.5184705082822347  0.0583691139556706
  0.8887666199879973  0.5554735182900714  0.0581375969336335
  0.9258418653289766  0.6295604427699999  0.0591811622962695
  0.8887900158882047  0.6665775058668046  0.0594301645337367
  0.9258350695817938  0.7406428914532626  0.0605054797963192
  0.8887501967069724  0.7776579366564107  0.0608336020436795
  0.9258379085407711  0.8517454059491456  0.0616395795454920
  0.8887684963761728  0.8887647503021654  0.0618562480295708
  0.9258470688331499  0.9628648198788881  0.0621779914616809
  0.2671329311699040  0.1333642584042991  0.1955298191408659
  0.3371033266637795  0.1866927124290285  0.1938317903166151
  0.3498003290259248  0.2550222230507160  0.1917514145689481
  0.2950085507259956  0.2698343510418368  0.1913026927977768
  0.2244519839251282  0.2164248750555444  0.1933238263966857
  0.2120733717582794  0.1473551967866555  0.1953728205726435
  0.3265090560301758  0.3446876238805814  0.1884722522950142
  0.4139956015479882  0.3223981722750580  0.1893413913399229
  0.3180672789300658  0.4448892203404569  0.1862454731225185
  0.3936810513249824  0.5589593497247520  0.1869664103162165
  0.2767558465310387  0.4793490602495609  0.1861631229796217
  0.3248502844265531  0.5513283332428003  0.1870051764927751
  0.3023395382193428  0.6007979198580955  0.1865445073460208
  0.2294638853337503  0.5739078993810409  0.1849165299350233
  0.1823947338645553  0.5021098478062811  0.1839208749441070
  0.2049658856463026  0.4532241970889146  0.1845512149473905
  0.5345218133286735  0.3900220490810398  0.1882940026734445
  0.6101153272233617  0.5040202764248534  0.1877677052922593
  0.6257506473157264  0.3480765462139175  0.1873283841137052
  0.6986040849039767  0.3749158377583015  0.1847333587279962
  0.7456900827644475  0.4467211453598097  0.1838123647505583
  0.7232334773072040  0.4956831848688097  0.1853618051291122
  0.6514530084840686  0.4695840457562781  0.1874658175318871
  0.6033163893351059  0.3976104226027104  0.1881539123057792
  0.6015371343271099  0.6041778255607184  0.1887870521839901
  0.5142209549566132  0.6267175015317648  0.1879186187207651
  0.6331017204327765  0.6790124659692012  0.1908849078075292
  0.7036687530731314  0.7319980611037309  0.1942367645150753
  0.7164485692041396  0.8011287222441936  0.1967434294883219
  0.6616330844828866  0.8155219231766822  0.1955344852170953
  0.5916425002278913  0.7625987146290498  0.1922261943119352
  0.5784971222706332  0.6940837807803106  0.1901870960339593
  0.3987906839173903  0.3759119177867234  0.1877127585174136
  0.2888725747646390  0.3760767669536591  0.1869573605901707
  0.3884347257785166  0.4935879344678824  0.1864964225728087
  0.4765986753414282  0.3282879112384904  0.1890610748724626
  0.5397389647611135  0.4553594793283935  0.1877136708822391
  0.6392238616321393  0.5727959111767333  0.1884990354144520
  0.5293390999161218  0.5730845077854525  0.1872977942348300
  0.4515661060887410  0.6207160260958702  0.1874258701262121
  0.3490212201847598  0.6711347138230508  0.1886904286211646
  0.7562472274641863  0.7162197233933654  0.1930292961869640
  0.5790068189574384  0.2779021334948411  0.1899279410372117
  0.1715191804890779  0.2316374896283264  0.1947437682050221
  0.2546904855305741  0.0791368868636013  0.1968384194130905
  0.3793644799316027  0.1751788987916711  0.1938831398241803
  0.1584525207180008  0.1043058778530721  0.1967163580425719
  0.2097981026659710  0.6102340866206788  0.1835859216131652
  0.1268625115110851  0.4842525514940732  0.1817056708604028
  0.1683112287561102  0.3975889936381307  0.1828640537026587
  0.7182022727657653  0.3385991440881924  0.1824340746536848
  0.8011689053642073  0.4645468172176308  0.1808109357876475
  0.7599436010646770  0.5513300086524282  0.1837306886701882
  0.7701206624855175  0.8439120408381342  0.1990409258586396
  0.6743783639167020  0.8698257457581846  0.1969571612385863
  0.5497283808505387  0.7745903491521346  0.1911293747509788
  0.3330286442886745  0.7039240596412455  0.1753117406201170
  0.3996721803779337  0.6854800930643634  0.1819710954125142
  0.7412799441665001  0.6649438099411142  0.1972280995510829
  0.8038421880978248  0.7517896742209160  0.2066038047922945
  0.5948070199761730  0.2443800974259744  0.1782908661831257
  0.5281030712854928  0.2632678277931859  0.1843872136292291
  0.1231086461448925  0.1940655962212716  0.1842983496702928
  0.1852154542243483  0.2817955417030689  0.1863920845324003
  0.4640698065039430  0.4744862541214161  0.1863048768800510
 
  0.00000000E+00  0.00000000E+00  0.00000000E+00
  0.00000000E+00  0.00000000E+00  0.00000000E+00
  0.00000000E+00  0.00000000E+00  0.00000000E+00
  0.00000000E+00  0.00000000E+00  0.00000000E+00
  0.00000000E+00  0.00000000E+00  0.00000000E+00
  0.00000000E+00  0.00000000E+00  0.00000000E+00
  0.00000000E+00  0.00000000E+00  0.00000000E+00
  0.00000000E+00  0.00000000E+00  0.00000000E+00
  0.00000000E+00  0.00000000E+00  0.00000000E+00
  0.00000000E+00  0.00000000E+00  0.00000000E+00
  0.00000000E+00  0.00000000E+00  0.00000000E+00
  0.00000000E+00  0.00000000E+00  0.00000000E+00
  0.00000000E+00  0.00000000E+00  0.00000000E+00
  0.00000000E+00  0.00000000E+00  0.00000000E+00
  0.00000000E+00  0.00000000E+00  0.00000000E+00
  0.00000000E+00  0.00000000E+00  0.00000000E+00
  0.00000000E+00  0.00000000E+00  0.00000000E+00
  0.00000000E+00  0.00000000E+00  0.00000000E+00
  0.00000000E+00  0.00000000E+00  0.00000000E+00
  0.00000000E+00  0.00000000E+00  0.00000000E+00
  0.00000000E+00  0.00000000E+00  0.00000000E+00
  0.00000000E+00  0.00000000E+00  0.00000000E+00
  0.00000000E+00  0.00000000E+00  0.00000000E+00
  0.00000000E+00  0.00000000E+00  0.00000000E+00
  0.00000000E+00  0.00000000E+00  0.00000000E+00
  0.00000000E+00  0.00000000E+00  0.00000000E+00
  0.00000000E+00  0.00000000E+00  0.00000000E+00
  0.00000000E+00  0.00000000E+00  0.00000000E+00
  0.00000000E+00  0.00000000E+00  0.00000000E+00
  0.00000000E+00  0.00000000E+00  0.00000000E+00
  0.00000000E+00  0.00000000E+00  0.00000000E+00
  0.00000000E+00  0.00000000E+00  0.00000000E+00
  0.00000000E+00  0.00000000E+00  0.00000000E+00
  0.00000000E+00  0.00000000E+00  0.00000000E+00
  0.00000000E+00  0.00000000E+00  0.00000000E+00
  0.00000000E+00  0.00000000E+00  0.00000000E+00
  0.00000000E+00  0.00000000E+00  0.00000000E+00
  0.00000000E+00  0.00000000E+00  0.00000000E+00
  0.00000000E+00  0.00000000E+00  0.00000000E+00
  0.00000000E+00  0.00000000E+00  0.00000000E+00
  0.00000000E+00  0.00000000E+00  0.00000000E+00
  0.00000000E+00  0.00000000E+00  0.00000000E+00
  0.00000000E+00  0.00000000E+00  0.00000000E+00
  0.00000000E+00  0.00000000E+00  0.00000000E+00
  0.00000000E+00  0.00000000E+00  0.00000000E+00
  0.00000000E+00  0.00000000E+00  0.00000000E+00
  0.00000000E+00  0.00000000E+00  0.00000000E+00
  0.00000000E+00  0.00000000E+00  0.00000000E+00
  0.00000000E+00  0.00000000E+00  0.00000000E+00
  0.00000000E+00  0.00000000E+00  0.00000000E+00
  0.00000000E+00  0.00000000E+00  0.00000000E+00
  0.00000000E+00  0.00000000E+00  0.00000000E+00
  0.00000000E+00  0.00000000E+00  0.00000000E+00
  0.00000000E+00  0.00000000E+00  0.00000000E+00
  0.00000000E+00  0.00000000E+00  0.00000000E+00
  0.00000000E+00  0.00000000E+00  0.00000000E+00
  0.00000000E+00  0.00000000E+00  0.00000000E+00
  0.00000000E+00  0.00000000E+00  0.00000000E+00
  0.00000000E+00  0.00000000E+00  0.00000000E+00
  0.00000000E+00  0.00000000E+00  0.00000000E+00
  0.00000000E+00  0.00000000E+00  0.00000000E+00
  0.00000000E+00  0.00000000E+00  0.00000000E+00
  0.00000000E+00  0.00000000E+00  0.00000000E+00
  0.00000000E+00  0.00000000E+00  0.00000000E+00
  0.00000000E+00  0.00000000E+00  0.00000000E+00
  0.00000000E+00  0.00000000E+00  0.00000000E+00
  0.00000000E+00  0.00000000E+00  0.00000000E+00
  0.00000000E+00  0.00000000E+00  0.00000000E+00
  0.00000000E+00  0.00000000E+00  0.00000000E+00
  0.00000000E+00  0.00000000E+00  0.00000000E+00
  0.00000000E+00  0.00000000E+00  0.00000000E+00
  0.00000000E+00  0.00000000E+00  0.00000000E+00
  0.00000000E+00  0.00000000E+00  0.00000000E+00
  0.00000000E+00  0.00000000E+00  0.00000000E+00
  0.00000000E+00  0.00000000E+00  0.00000000E+00
  0.00000000E+00  0.00000000E+00  0.00000000E+00
  0.00000000E+00  0.00000000E+00  0.00000000E+00
  0.00000000E+00  0.00000000E+00  0.00000000E+00
  0.00000000E+00  0.00000000E+00  0.00000000E+00
  0.00000000E+00  0.00000000E+00  0.00000000E+00
  0.00000000E+00  0.00000000E+00  0.00000000E+00
  0.00000000E+00  0.00000000E+00  0.00000000E+00
  0.00000000E+00  0.00000000E+00  0.00000000E+00
  0.00000000E+00  0.00000000E+00  0.00000000E+00
  0.00000000E+00  0.00000000E+00  0.00000000E+00
  0.00000000E+00  0.00000000E+00  0.00000000E+00
  0.00000000E+00  0.00000000E+00  0.00000000E+00
  0.00000000E+00  0.00000000E+00  0.00000000E+00
  0.00000000E+00  0.00000000E+00  0.00000000E+00
  0.00000000E+00  0.00000000E+00  0.00000000E+00
  0.00000000E+00  0.00000000E+00  0.00000000E+00
  0.00000000E+00  0.00000000E+00  0.00000000E+00
  0.00000000E+00  0.00000000E+00  0.00000000E+00
  0.00000000E+00  0.00000000E+00  0.00000000E+00
  0.00000000E+00  0.00000000E+00  0.00000000E+00
  0.00000000E+00  0.00000000E+00  0.00000000E+00
  0.00000000E+00  0.00000000E+00  0.00000000E+00
  0.00000000E+00  0.00000000E+00  0.00000000E+00
  0.00000000E+00  0.00000000E+00  0.00000000E+00
  0.00000000E+00  0.00000000E+00  0.00000000E+00
  0.00000000E+00  0.00000000E+00  0.00000000E+00
  0.00000000E+00  0.00000000E+00  0.00000000E+00
  0.00000000E+00  0.00000000E+00  0.00000000E+00
  0.00000000E+00  0.00000000E+00  0.00000000E+00
  0.00000000E+00  0.00000000E+00  0.00000000E+00
  0.00000000E+00  0.00000000E+00  0.00000000E+00
  0.00000000E+00  0.00000000E+00  0.00000000E+00
  0.00000000E+00  0.00000000E+00  0.00000000E+00
  0.00000000E+00  0.00000000E+00  0.00000000E+00
  0.00000000E+00  0.00000000E+00  0.00000000E+00
  0.00000000E+00  0.00000000E+00  0.00000000E+00
  0.00000000E+00  0.00000000E+00  0.00000000E+00
  0.00000000E+00  0.00000000E+00  0.00000000E+00
  0.00000000E+00  0.00000000E+00  0.00000000E+00
  0.00000000E+00  0.00000000E+00  0.00000000E+00
  0.00000000E+00  0.00000000E+00  0.00000000E+00
  0.00000000E+00  0.00000000E+00  0.00000000E+00
  0.00000000E+00  0.00000000E+00  0.00000000E+00
  0.00000000E+00  0.00000000E+00  0.00000000E+00
  0.00000000E+00  0.00000000E+00  0.00000000E+00
  0.00000000E+00  0.00000000E+00  0.00000000E+00
  0.00000000E+00  0.00000000E+00  0.00000000E+00
  0.00000000E+00  0.00000000E+00  0.00000000E+00
  0.00000000E+00  0.00000000E+00  0.00000000E+00
  0.00000000E+00  0.00000000E+00  0.00000000E+00
  0.00000000E+00  0.00000000E+00  0.00000000E+00
  0.00000000E+00  0.00000000E+00  0.00000000E+00
  0.00000000E+00  0.00000000E+00  0.00000000E+00
  0.00000000E+00  0.00000000E+00  0.00000000E+00
  0.00000000E+00  0.00000000E+00  0.00000000E+00
  0.00000000E+00  0.00000000E+00  0.00000000E+00
  0.00000000E+00  0.00000000E+00  0.00000000E+00
  0.00000000E+00  0.00000000E+00  0.00000000E+00
  0.00000000E+00  0.00000000E+00  0.00000000E+00
  0.00000000E+00  0.00000000E+00  0.00000000E+00
  0.00000000E+00  0.00000000E+00  0.00000000E+00
  0.00000000E+00  0.00000000E+00  0.00000000E+00
  0.00000000E+00  0.00000000E+00  0.00000000E+00
  0.00000000E+00  0.00000000E+00  0.00000000E+00
  0.00000000E+00  0.00000000E+00  0.00000000E+00
  0.00000000E+00  0.00000000E+00  0.00000000E+00
  0.00000000E+00  0.00000000E+00  0.00000000E+00
  0.00000000E+00  0.00000000E+00  0.00000000E+00
  0.00000000E+00  0.00000000E+00  0.00000000E+00
  0.00000000E+00  0.00000000E+00  0.00000000E+00
  0.00000000E+00  0.00000000E+00  0.00000000E+00
  0.00000000E+00  0.00000000E+00  0.00000000E+00
  0.00000000E+00  0.00000000E+00  0.00000000E+00
  0.00000000E+00  0.00000000E+00  0.00000000E+00
  0.00000000E+00  0.00000000E+00  0.00000000E+00
  0.00000000E+00  0.00000000E+00  0.00000000E+00
  0.00000000E+00  0.00000000E+00  0.00000000E+00
  0.00000000E+00  0.00000000E+00  0.00000000E+00
  0.00000000E+00  0.00000000E+00  0.00000000E+00
  0.00000000E+00  0.00000000E+00  0.00000000E+00
  0.00000000E+00  0.00000000E+00  0.00000000E+00
  0.00000000E+00  0.00000000E+00  0.00000000E+00
  0.00000000E+00  0.00000000E+00  0.00000000E+00
  0.00000000E+00  0.00000000E+00  0.00000000E+00
  0.00000000E+00  0.00000000E+00  0.00000000E+00
  0.00000000E+00  0.00000000E+00  0.00000000E+00
  0.00000000E+00  0.00000000E+00  0.00000000E+00
  0.00000000E+00  0.00000000E+00  0.00000000E+00
  0.00000000E+00  0.00000000E+00  0.00000000E+00
  0.00000000E+00  0.00000000E+00  0.00000000E+00
  0.00000000E+00  0.00000000E+00  0.00000000E+00
  0.00000000E+00  0.00000000E+00  0.00000000E+00
  0.00000000E+00  0.00000000E+00  0.00000000E+00
  0.00000000E+00  0.00000000E+00  0.00000000E+00
  0.00000000E+00  0.00000000E+00  0.00000000E+00
  0.00000000E+00  0.00000000E+00  0.00000000E+00
  0.00000000E+00  0.00000000E+00  0.00000000E+00
  0.00000000E+00  0.00000000E+00  0.00000000E+00
  0.00000000E+00  0.00000000E+00  0.00000000E+00
  0.00000000E+00  0.00000000E+00  0.00000000E+00
  0.00000000E+00  0.00000000E+00  0.00000000E+00
  0.00000000E+00  0.00000000E+00  0.00000000E+00
  0.00000000E+00  0.00000000E+00  0.00000000E+00
  0.00000000E+00  0.00000000E+00  0.00000000E+00
  0.00000000E+00  0.00000000E+00  0.00000000E+00
  0.00000000E+00  0.00000000E+00  0.00000000E+00
  0.00000000E+00  0.00000000E+00  0.00000000E+00
  0.00000000E+00  0.00000000E+00  0.00000000E+00
  0.00000000E+00  0.00000000E+00  0.00000000E+00
  0.00000000E+00  0.00000000E+00  0.00000000E+00
  0.00000000E+00  0.00000000E+00  0.00000000E+00
  0.00000000E+00  0.00000000E+00  0.00000000E+00
  0.00000000E+00  0.00000000E+00  0.00000000E+00
  0.00000000E+00  0.00000000E+00  0.00000000E+00
  0.00000000E+00  0.00000000E+00  0.00000000E+00
  0.00000000E+00  0.00000000E+00  0.00000000E+00
  0.00000000E+00  0.00000000E+00  0.00000000E+00
  0.00000000E+00  0.00000000E+00  0.00000000E+00
  0.00000000E+00  0.00000000E+00  0.00000000E+00
  0.00000000E+00  0.00000000E+00  0.00000000E+00
  0.00000000E+00  0.00000000E+00  0.00000000E+00
  0.00000000E+00  0.00000000E+00  0.00000000E+00
  0.00000000E+00  0.00000000E+00  0.00000000E+00
  0.00000000E+00  0.00000000E+00  0.00000000E+00
  0.00000000E+00  0.00000000E+00  0.00000000E+00
  0.00000000E+00  0.00000000E+00  0.00000000E+00
  0.00000000E+00  0.00000000E+00  0.00000000E+00
  0.00000000E+00  0.00000000E+00  0.00000000E+00
  0.00000000E+00  0.00000000E+00  0.00000000E+00
  0.00000000E+00  0.00000000E+00  0.00000000E+00
  0.00000000E+00  0.00000000E+00  0.00000000E+00
  0.00000000E+00  0.00000000E+00  0.00000000E+00
  0.00000000E+00  0.00000000E+00  0.00000000E+00
  0.00000000E+00  0.00000000E+00  0.00000000E+00
  0.00000000E+00  0.00000000E+00  0.00000000E+00
  0.00000000E+00  0.00000000E+00  0.00000000E+00
  0.00000000E+00  0.00000000E+00  0.00000000E+00
  0.00000000E+00  0.00000000E+00  0.00000000E+00
  0.00000000E+00  0.00000000E+00  0.00000000E+00
  0.00000000E+00  0.00000000E+00  0.00000000E+00
  0.00000000E+00  0.00000000E+00  0.00000000E+00
  0.00000000E+00  0.00000000E+00  0.00000000E+00
  0.00000000E+00  0.00000000E+00  0.00000000E+00
  0.00000000E+00  0.00000000E+00  0.00000000E+00
  0.00000000E+00  0.00000000E+00  0.00000000E+00
  0.00000000E+00  0.00000000E+00  0.00000000E+00
  0.00000000E+00  0.00000000E+00  0.00000000E+00
  0.00000000E+00  0.00000000E+00  0.00000000E+00
  0.00000000E+00  0.00000000E+00  0.00000000E+00
  0.00000000E+00  0.00000000E+00  0.00000000E+00
  0.00000000E+00  0.00000000E+00  0.00000000E+00
  0.00000000E+00  0.00000000E+00  0.00000000E+00
