"C194 N13 H22 Co1"                      
   1.00000000000000     
    22.2328796386999983    0.0000000000000000    0.0000000000000000
   -11.1169084918000003   19.2546595359999984    0.0000000000000000
     0.0043801329000000    0.0945622140000000   25.3420721124999986
   C    N    H    Co
   194    13    22     1
Direct
  0.9999397626938986  0.9998750562728986  0.0629958130132877
  0.0370324878974131  0.0739834555322432  0.0625691984268428
  0.9999583977916942  0.1110126784308036  0.0624309240474403
  0.0370344917307364  0.1851161583196586  0.0613065474392229
  0.9999699375373083  0.2221540908773036  0.0608188789127411
  0.0370228316981382  0.2962245647678827  0.0592393119791552
  0.9999611901068306  0.3332444916126391  0.0588300865429758
  0.0370382326595191  0.4073278198817007  0.0575348930329653
  0.9999506767154784  0.4443364645778942  0.0577946698014031
  0.0370064387960909  0.5184111299811462  0.0576608285881264
  0.9999369404990048  0.5554347390682679  0.0583216859825058
  0.0369734318941326  0.6294941482569172  0.0591299926578230
  0.9999077936338310  0.6665193433363328  0.0597867562315955
  0.0369536790794243  0.7405899758948138  0.0608562581461740
  0.9998965976310501  0.7776197592674734  0.0613943814868705
  0.0369607259420093  0.8517079145311968  0.0621908551745491
  0.9999134971191381  0.8887457288361489  0.0625839827922547
  0.0369956076122691  0.9628453030386694  0.0628112480340874
  0.1110970853481490  0.9999371086257938  0.0622636141822639
  0.1481927205377005  0.0740302207446177  0.0613849631447749
  0.1111425959911116  0.1110674084819365  0.0615740329787471
  0.1481869294588236  0.1851351399060164  0.0602654030204164
  0.1111330820442618  0.2221715879534898  0.0601455504933242
  0.1481595218269618  0.2962419899765223  0.0584810570301997
  0.1111106915697562  0.3332829958108263  0.0578786509099558
  0.1481329903458928  0.4073184966457362  0.0559553568761686
  0.1111006016772293  0.4443474871816093  0.0560205520231776
  0.1481504950123664  0.5184053954783465  0.0553786417249995
  0.1111001964244522  0.5554161093576013  0.0568521670745028
  0.1481135913483342  0.6294868989751521  0.0577594681264628
  0.1110584450331942  0.6665156961743435  0.0591662069643135
  0.1480810201437208  0.7405919548080675  0.0602076424302069
  0.1110360748574806  0.7776306501787431  0.0610851330873885
  0.1480823456240330  0.8517091857134034  0.0617121002338905
  0.1110503691026707  0.8887676980198265  0.0621787486522081
  0.1481185829342735  0.9628699506987672  0.0621010583934307
  0.2221986320357701  0.9999562673259277  0.0614488533444728
  0.2592314108733262  0.0740399893625465  0.0604082558448056
  0.2222310915997312  0.1110812053084445  0.0601320671539725
  0.2592501185855340  0.1851277808965008  0.0590540995396722
  0.2222269080586727  0.2221638014473086  0.0590063604632576
  0.2592131682227503  0.2962060172161216  0.0579250738736192
  0.2222143882718868  0.3332687811565407  0.0574258218858574
  0.2592000344032073  0.4073103865178140  0.0558866691326827
  0.2221829942996791  0.4443383615510470  0.0549857528098414
  0.2592164440453928  0.5183992966337030  0.0542577764351933
  0.2221878775900521  0.5554129925885363  0.0545211403326746
  0.2592331751483812  0.6294773365573292  0.0555422796800187
  0.2222013985961908  0.6665053666253158  0.0573244144728662
  0.2591977429973085  0.7405668357975657  0.0589199814559791
  0.2221567101407231  0.7776254175489612  0.0601875801121778
  0.2591973706599475  0.8517106700415411  0.0610205015126297
  0.2221574960798520  0.8887642713524215  0.0615656844547701
  0.2592074437502134  0.9628693236675616  0.0614986413500631
  0.3332785613750460  0.9999157195881310  0.0611159653084954
  0.3702985435073245  0.0740210074907637  0.0603306716063372
  0.3332856795640495  0.1110827819482623  0.0597082149003896
  0.3702940919158024  0.1851332642226922  0.0585731361607884
  0.3332655964574798  0.2221552907137081  0.0582535259112689
  0.3703115158442642  0.2962138121011719  0.0575747059091896
  0.3332732084784098  0.3332456387746632  0.0574400963417077
  0.3702761371376226  0.4072986493035771  0.0569430774933224
  0.3332651089523466  0.4443464436938243  0.0560007481223508
  0.3703277842720212  0.5184189949434241  0.0555380361814031
  0.3332573274688357  0.5554277090592308  0.0547625045827118
  0.3703360569312295  0.6294740316324408  0.0554986600904925
  0.3332830904185755  0.6664965778296974  0.0559667275097695
  0.3703182930055817  0.7405506199309642  0.0578603882162341
  0.3332910872687265  0.7776147218829621  0.0591100383902869
  0.3703200566921794  0.8517079807291736  0.0603818794584114
  0.3332755055271193  0.8887567684455675  0.0609871070162811
  0.3703076484345544  0.9628478881142968  0.0611684136329487
  0.4443745341319740  0.9998760378454463  0.0610091591231736
  0.4813996387772832  0.0739744980305090  0.0604254618041935
  0.4443778326588514  0.1110480399918785  0.0598418105397229
  0.4814024410043842  0.1851345234509694  0.0584538895612781
  0.4443594014914254  0.2221816200348314  0.0579020501080976
  0.4814351648391550  0.2962454528289769  0.0567688194228495
  0.4443734048901646  0.3332523728585670  0.0569439121773740
  0.4814521505696874  0.4072889193827294  0.0567474454919292
  0.4443769915710334  0.4443306087865935  0.0571181125046749
  0.4814450856218997  0.5184273191905362  0.0569278645236153
  0.4443688177788161  0.5554484418029446  0.0563470044515810
  0.4814532126603908  0.6294917222909788  0.0565907543582327
  0.4443756889729045  0.6664813748884981  0.0566361319744288
  0.4814391152720887  0.7405393329719914  0.0580646866152605
  0.4443984240005321  0.7775841442301754  0.0587645402506141
  0.4814144408711911  0.8516641004180983  0.0601623894813130
  0.4443882570074393  0.8887325616309170  0.0606562210964938
  0.4814141863433363  0.9628288903819282  0.0610797049536416
  0.5554788966846829  0.9998555536434282  0.0612009511805880
  0.5925134562500531  0.0739481423816457  0.0608292959740879
  0.5554700145348477  0.1110028676759711  0.0601130264064622
  0.5924991321378670  0.1851059128620349  0.0587610297925636
  0.5554764707204569  0.2221769999330832  0.0575602478121340
  0.5925221377842007  0.2962466450461534  0.0558614366351833
  0.5554741520670063  0.3332671878745543  0.0556771791214885
  0.5925550273381290  0.4073264529704872  0.0551295834115635
  0.5555024683025351  0.4443379018734959  0.0559447818452838
  0.5925568104358305  0.5184092505226943  0.0562273511877578
  0.5555401278448429  0.5554517689820813  0.0568330760979805
  0.5925596420699932  0.6295000939277315  0.0571847699579990
  0.5555059375806479  0.6665156395652545  0.0572938383768289
  0.5925523002239785  0.7405638725074013  0.0581924530002738
  0.5555137269778001  0.7775763189501674  0.0587802412556186
  0.5925091361785135  0.8516210620199445  0.0601088897126303
  0.5554870666337024  0.8886878641272062  0.0606729160797030
  0.5925070117293743  0.9627869827480779  0.0613071194587320
  0.6665791890774173  0.9998336884426138  0.0616342633512303
  0.7036273505435560  0.0739388308128213  0.0615038097899969
  0.6665912000892504  0.1109979138491468  0.0608258713340533
  0.7036310454491002  0.1850920620246583  0.0598799065578461
  0.6665981425283789  0.2221641985858085  0.0585690479926839
  0.7035976009629294  0.2962392325713381  0.0569998036794530
  0.6665676734070800  0.3332774527744107  0.0553916221624178
  0.7036205209398645  0.4073496865103579  0.0546078993212618
  0.6666004827987138  0.4443662850005410  0.0545922773923948
  0.7036322950568845  0.5184257315627434  0.0553232345883714
  0.6666235060916321  0.5554598831557200  0.0561019512874523
  0.7036270192750180  0.6295005876727373  0.0572868614424635
  0.6666133184569389  0.6665352541167096  0.0577002513218616
  0.7036110957797561  0.7405698286724416  0.0588014886862496
  0.6665676975563599  0.7775799144236260  0.0590317153038526
  0.7035724206747531  0.8516130534385056  0.0603680534692757
  0.6665674483415600  0.8886611023901665  0.0607899664961522
  0.7035923349316562  0.9627482477914313  0.0617050505782970
  0.7776702829432267  0.9998261562771731  0.0622546992959272
  0.8147302703071873  0.0739310438675744  0.0622242927434158
  0.7777018770109692  0.1109925701753198  0.0616327746850232
  0.8147463694581631  0.1850782561990698  0.0608891723825451
  0.7777078840854941  0.2221285293303978  0.0599113179182709
  0.8147309845819919  0.2962154789101135  0.0588634122505098
  0.7776789590797719  0.3332581252123319  0.0574749791681484
  0.8147011605033256  0.4073379738207947  0.0567237108361525
  0.7776551414686423  0.4443612578834788  0.0554277125093847
  0.8147021511981265  0.5184085858252558  0.0561906417153253
  0.7776720901468295  0.5554468026207218  0.0561773335679803
  0.8146901171666201  0.6294925278338752  0.0578159574205586
  0.7776655830590471  0.6665334125486098  0.0581724867246507
  0.8146723941013221  0.7405647418359962  0.0597107822992484
  0.7776341311030492  0.7775787957268534  0.0599636503913601
  0.8146553000556978  0.8516156193260400  0.0614074060434078
  0.7776162180572257  0.8886613231859997  0.0614860010036296
  0.8146887222040320  0.9627516824797624  0.0623953206334562
  0.8887845293472409  0.9998389455068946  0.0629009941993459
  0.9258538418395759  0.0739398688698003  0.0627502211700701
  0.8888177627878235  0.1109927290622821  0.0622794775912610
  0.9258791030066433  0.1850888066708194  0.0614374968564633
  0.8888274293776988  0.2221258888877671  0.0607237445481061
  0.9258736636448788  0.2962044085537698  0.0596084518358708
  0.8888147922229876  0.3332372465879843  0.0588955415124914
  0.9258573912325403  0.4073068937947966  0.0581802063346117
  0.8887880707408158  0.4443363068140940  0.0575960766585055
  0.9258454289446689  0.5184111146025714  0.0578763837482157
  0.8887605457842085  0.5554211160766158  0.0576670975201949
  0.9258259160457882  0.6294946442360256  0.0589371798899876
  0.8887700861517658  0.6665195300473172  0.0591854777026199
  0.9258099685006300  0.7405735953738812  0.0606359744971456
  0.8887303594756091  0.7775926937350661  0.0609381505478481
  0.9258137640918278  0.8516768596248312  0.0621551918780696
  0.8887492530717793  0.8887016397342293  0.0623782754753321
  0.9258329581035127  0.9628009382349489  0.0629752036288309
  0.2670968511110772  0.1331732521025657  0.1943514964946118
  0.3370684639107324  0.1865899743229562  0.1932083340740292
  0.3493307849681386  0.2547374927786024  0.1917271357049941
  0.2944945661123199  0.2695100040303657  0.1912334509456457
  0.2239837145783738  0.2159716669652809  0.1925283994040967
  0.2119221430453564  0.1469726914019418  0.1941354530741890
  0.3260524910349645  0.3444251405397978  0.1887115591343047
  0.4134036761923028  0.3221134666501371  0.1896552327858814
  0.3177641581340609  0.4446479007022717  0.1871936169925661
  0.3933765174265957  0.5586303351060025  0.1880287780454353
  0.2765656790183755  0.4792821933746083  0.1873195605463067
  0.3247677743458439  0.5512536971359197  0.1879846790915565
  0.3027828693526260  0.6011154097524312  0.1870517131455429
  0.2299485039126878  0.5743877221790967  0.1855344144963809
  0.1827000397224978  0.5026077805643254  0.1850574525264150
  0.2048567547917912  0.4533883749365160  0.1858852511212135
  0.5338656875480297  0.3895724422997802  0.1898785300000867
  0.6097534134486509  0.5037478251332175  0.1900655697982501
  0.6247107882591507  0.3473767860906136  0.1882626025440857
  0.6975344348820869  0.3741759392034183  0.1861446453078202
  0.7447281271906192  0.4460155712366074  0.1855314916998694
  0.7225821882826864  0.4952013867132408  0.1872638264091222
  0.6508252093092679  0.4691201820504745  0.1896481747037555
  0.6025661816686991  0.3971256007272572  0.1899290872519259
  0.6013750609949682  0.6038814102573156  0.1909187036618789
  0.5137888636231409  0.6261876111134086  0.1898898910245919
  0.6327111580252165  0.6787051623555840  0.1924682594230305
  0.7032440084040772  0.7322220705355917  0.1942736897527482
  0.7153116566053370  0.8011224603126621  0.1960681626727236
  0.6601504837014502  0.8150054928621273  0.1953214700743331
  0.5902898608963056  0.7617195873029914  0.1930869629884455
  0.5778461296458488  0.6934608431198015  0.1919022803650705
  0.3982180784478899  0.3753848029367219  0.1874397677424682
  0.2884709867937119  0.3758634984157254  0.1879683463037196
  0.3880552325633175  0.4933984821963406  0.1869048347926636
  0.4759498134040072  0.3278779504047122  0.1903613327298217
  0.5392873916290242  0.4550639602302411  0.1893437255067596
  0.6390486873243901  0.5725093216884432  0.1911761455950298
  0.5291037212277701  0.5726896419032812  0.1891202952859814
  0.4512063546579910  0.6203304731811556  0.1893633621707451
  0.3498426936020778  0.6713683579401248  0.1886546783113658
  0.7561967571959727  0.7171429611168705  0.1921480775244433
  0.5776710230413471  0.2771412545152145  0.1896621743704756
  0.1709029525082428  0.2309836311979367  0.1935813778281101
  0.4589582677507877  0.4716937888315371  0.2675722710393060
  0.2548532919312052  0.0790414721399628  0.1950327785175361
  0.3796439588465077  0.1754829007019651  0.1930574032449854
  0.1583508759455441  0.1037759806976268  0.1948361255099371
  0.2104406778434580  0.6107780154801361  0.1839811208172719
  0.1271794404139399  0.4848730590920525  0.1831303644788278
  0.1680405229812436  0.3977510674931253  0.1847168792720524
  0.7169952939905073  0.3377763842961556  0.1837944795322102
  0.8001689428423902  0.4637616944155027  0.1824902991083803
  0.7592404375142436  0.5508912199149236  0.1854690622504194
  0.7688430280638485  0.8442633844679079  0.1969135383656990
  0.6724537787041314  0.8691523289497098  0.1957397422602796
  0.5478616466523292  0.7729244903841703  0.1919591793048312
  0.3341724261820289  0.7041389636887985  0.1746194952777813
  0.4004172688807088  0.6851191803602532  0.1822884756162608
  0.7423984606534901  0.6663113384997530  0.1970515023062944
  0.8045499228294943  0.7540181641833854  0.2033145906857783
  0.5932792683011385  0.2444872326040439  0.1754624691246605
  0.5269792346752951  0.2632305953102048  0.1837653338617002
  0.1229513302197418  0.1935423675555938  0.1820120631971207
  0.1846554541572090  0.2813076492866244  0.1858264685451303
  0.4971350137443764  0.4606394034937580  0.2789333101030920
  0.4800488335342763  0.5232616591451205  0.2782473514439801
  0.4636897850562605  0.4741865083126555  0.1919531747060290
 
  0.00000000E+00  0.00000000E+00  0.00000000E+00
  0.00000000E+00  0.00000000E+00  0.00000000E+00
  0.00000000E+00  0.00000000E+00  0.00000000E+00
  0.00000000E+00  0.00000000E+00  0.00000000E+00
  0.00000000E+00  0.00000000E+00  0.00000000E+00
  0.00000000E+00  0.00000000E+00  0.00000000E+00
  0.00000000E+00  0.00000000E+00  0.00000000E+00
  0.00000000E+00  0.00000000E+00  0.00000000E+00
  0.00000000E+00  0.00000000E+00  0.00000000E+00
  0.00000000E+00  0.00000000E+00  0.00000000E+00
  0.00000000E+00  0.00000000E+00  0.00000000E+00
  0.00000000E+00  0.00000000E+00  0.00000000E+00
  0.00000000E+00  0.00000000E+00  0.00000000E+00
  0.00000000E+00  0.00000000E+00  0.00000000E+00
  0.00000000E+00  0.00000000E+00  0.00000000E+00
  0.00000000E+00  0.00000000E+00  0.00000000E+00
  0.00000000E+00  0.00000000E+00  0.00000000E+00
  0.00000000E+00  0.00000000E+00  0.00000000E+00
  0.00000000E+00  0.00000000E+00  0.00000000E+00
  0.00000000E+00  0.00000000E+00  0.00000000E+00
  0.00000000E+00  0.00000000E+00  0.00000000E+00
  0.00000000E+00  0.00000000E+00  0.00000000E+00
  0.00000000E+00  0.00000000E+00  0.00000000E+00
  0.00000000E+00  0.00000000E+00  0.00000000E+00
  0.00000000E+00  0.00000000E+00  0.00000000E+00
  0.00000000E+00  0.00000000E+00  0.00000000E+00
  0.00000000E+00  0.00000000E+00  0.00000000E+00
  0.00000000E+00  0.00000000E+00  0.00000000E+00
  0.00000000E+00  0.00000000E+00  0.00000000E+00
  0.00000000E+00  0.00000000E+00  0.00000000E+00
  0.00000000E+00  0.00000000E+00  0.00000000E+00
  0.00000000E+00  0.00000000E+00  0.00000000E+00
  0.00000000E+00  0.00000000E+00  0.00000000E+00
  0.00000000E+00  0.00000000E+00  0.00000000E+00
  0.00000000E+00  0.00000000E+00  0.00000000E+00
  0.00000000E+00  0.00000000E+00  0.00000000E+00
  0.00000000E+00  0.00000000E+00  0.00000000E+00
  0.00000000E+00  0.00000000E+00  0.00000000E+00
  0.00000000E+00  0.00000000E+00  0.00000000E+00
  0.00000000E+00  0.00000000E+00  0.00000000E+00
  0.00000000E+00  0.00000000E+00  0.00000000E+00
  0.00000000E+00  0.00000000E+00  0.00000000E+00
  0.00000000E+00  0.00000000E+00  0.00000000E+00
  0.00000000E+00  0.00000000E+00  0.00000000E+00
  0.00000000E+00  0.00000000E+00  0.00000000E+00
  0.00000000E+00  0.00000000E+00  0.00000000E+00
  0.00000000E+00  0.00000000E+00  0.00000000E+00
  0.00000000E+00  0.00000000E+00  0.00000000E+00
  0.00000000E+00  0.00000000E+00  0.00000000E+00
  0.00000000E+00  0.00000000E+00  0.00000000E+00
  0.00000000E+00  0.00000000E+00  0.00000000E+00
  0.00000000E+00  0.00000000E+00  0.00000000E+00
  0.00000000E+00  0.00000000E+00  0.00000000E+00
  0.00000000E+00  0.00000000E+00  0.00000000E+00
  0.00000000E+00  0.00000000E+00  0.00000000E+00
  0.00000000E+00  0.00000000E+00  0.00000000E+00
  0.00000000E+00  0.00000000E+00  0.00000000E+00
  0.00000000E+00  0.00000000E+00  0.00000000E+00
  0.00000000E+00  0.00000000E+00  0.00000000E+00
  0.00000000E+00  0.00000000E+00  0.00000000E+00
  0.00000000E+00  0.00000000E+00  0.00000000E+00
  0.00000000E+00  0.00000000E+00  0.00000000E+00
  0.00000000E+00  0.00000000E+00  0.00000000E+00
  0.00000000E+00  0.00000000E+00  0.00000000E+00
  0.00000000E+00  0.00000000E+00  0.00000000E+00
  0.00000000E+00  0.00000000E+00  0.00000000E+00
  0.00000000E+00  0.00000000E+00  0.00000000E+00
  0.00000000E+00  0.00000000E+00  0.00000000E+00
  0.00000000E+00  0.00000000E+00  0.00000000E+00
  0.00000000E+00  0.00000000E+00  0.00000000E+00
  0.00000000E+00  0.00000000E+00  0.00000000E+00
  0.00000000E+00  0.00000000E+00  0.00000000E+00
  0.00000000E+00  0.00000000E+00  0.00000000E+00
  0.00000000E+00  0.00000000E+00  0.00000000E+00
  0.00000000E+00  0.00000000E+00  0.00000000E+00
  0.00000000E+00  0.00000000E+00  0.00000000E+00
  0.00000000E+00  0.00000000E+00  0.00000000E+00
  0.00000000E+00  0.00000000E+00  0.00000000E+00
  0.00000000E+00  0.00000000E+00  0.00000000E+00
  0.00000000E+00  0.00000000E+00  0.00000000E+00
  0.00000000E+00  0.00000000E+00  0.00000000E+00
  0.00000000E+00  0.00000000E+00  0.00000000E+00
  0.00000000E+00  0.00000000E+00  0.00000000E+00
  0.00000000E+00  0.00000000E+00  0.00000000E+00
  0.00000000E+00  0.00000000E+00  0.00000000E+00
  0.00000000E+00  0.00000000E+00  0.00000000E+00
  0.00000000E+00  0.00000000E+00  0.00000000E+00
  0.00000000E+00  0.00000000E+00  0.00000000E+00
  0.00000000E+00  0.00000000E+00  0.00000000E+00
  0.00000000E+00  0.00000000E+00  0.00000000E+00
  0.00000000E+00  0.00000000E+00  0.00000000E+00
  0.00000000E+00  0.00000000E+00  0.00000000E+00
  0.00000000E+00  0.00000000E+00  0.00000000E+00
  0.00000000E+00  0.00000000E+00  0.00000000E+00
  0.00000000E+00  0.00000000E+00  0.00000000E+00
  0.00000000E+00  0.00000000E+00  0.00000000E+00
  0.00000000E+00  0.00000000E+00  0.00000000E+00
  0.00000000E+00  0.00000000E+00  0.00000000E+00
  0.00000000E+00  0.00000000E+00  0.00000000E+00
  0.00000000E+00  0.00000000E+00  0.00000000E+00
  0.00000000E+00  0.00000000E+00  0.00000000E+00
  0.00000000E+00  0.00000000E+00  0.00000000E+00
  0.00000000E+00  0.00000000E+00  0.00000000E+00
  0.00000000E+00  0.00000000E+00  0.00000000E+00
  0.00000000E+00  0.00000000E+00  0.00000000E+00
  0.00000000E+00  0.00000000E+00  0.00000000E+00
  0.00000000E+00  0.00000000E+00  0.00000000E+00
  0.00000000E+00  0.00000000E+00  0.00000000E+00
  0.00000000E+00  0.00000000E+00  0.00000000E+00
  0.00000000E+00  0.00000000E+00  0.00000000E+00
  0.00000000E+00  0.00000000E+00  0.00000000E+00
  0.00000000E+00  0.00000000E+00  0.00000000E+00
  0.00000000E+00  0.00000000E+00  0.00000000E+00
  0.00000000E+00  0.00000000E+00  0.00000000E+00
  0.00000000E+00  0.00000000E+00  0.00000000E+00
  0.00000000E+00  0.00000000E+00  0.00000000E+00
  0.00000000E+00  0.00000000E+00  0.00000000E+00
  0.00000000E+00  0.00000000E+00  0.00000000E+00
  0.00000000E+00  0.00000000E+00  0.00000000E+00
  0.00000000E+00  0.00000000E+00  0.00000000E+00
  0.00000000E+00  0.00000000E+00  0.00000000E+00
  0.00000000E+00  0.00000000E+00  0.00000000E+00
  0.00000000E+00  0.00000000E+00  0.00000000E+00
  0.00000000E+00  0.00000000E+00  0.00000000E+00
  0.00000000E+00  0.00000000E+00  0.00000000E+00
  0.00000000E+00  0.00000000E+00  0.00000000E+00
  0.00000000E+00  0.00000000E+00  0.00000000E+00
  0.00000000E+00  0.00000000E+00  0.00000000E+00
  0.00000000E+00  0.00000000E+00  0.00000000E+00
  0.00000000E+00  0.00000000E+00  0.00000000E+00
  0.00000000E+00  0.00000000E+00  0.00000000E+00
  0.00000000E+00  0.00000000E+00  0.00000000E+00
  0.00000000E+00  0.00000000E+00  0.00000000E+00
  0.00000000E+00  0.00000000E+00  0.00000000E+00
  0.00000000E+00  0.00000000E+00  0.00000000E+00
  0.00000000E+00  0.00000000E+00  0.00000000E+00
  0.00000000E+00  0.00000000E+00  0.00000000E+00
  0.00000000E+00  0.00000000E+00  0.00000000E+00
  0.00000000E+00  0.00000000E+00  0.00000000E+00
  0.00000000E+00  0.00000000E+00  0.00000000E+00
  0.00000000E+00  0.00000000E+00  0.00000000E+00
  0.00000000E+00  0.00000000E+00  0.00000000E+00
  0.00000000E+00  0.00000000E+00  0.00000000E+00
  0.00000000E+00  0.00000000E+00  0.00000000E+00
  0.00000000E+00  0.00000000E+00  0.00000000E+00
  0.00000000E+00  0.00000000E+00  0.00000000E+00
  0.00000000E+00  0.00000000E+00  0.00000000E+00
  0.00000000E+00  0.00000000E+00  0.00000000E+00
  0.00000000E+00  0.00000000E+00  0.00000000E+00
  0.00000000E+00  0.00000000E+00  0.00000000E+00
  0.00000000E+00  0.00000000E+00  0.00000000E+00
  0.00000000E+00  0.00000000E+00  0.00000000E+00
  0.00000000E+00  0.00000000E+00  0.00000000E+00
  0.00000000E+00  0.00000000E+00  0.00000000E+00
  0.00000000E+00  0.00000000E+00  0.00000000E+00
  0.00000000E+00  0.00000000E+00  0.00000000E+00
  0.00000000E+00  0.00000000E+00  0.00000000E+00
  0.00000000E+00  0.00000000E+00  0.00000000E+00
  0.00000000E+00  0.00000000E+00  0.00000000E+00
  0.00000000E+00  0.00000000E+00  0.00000000E+00
  0.00000000E+00  0.00000000E+00  0.00000000E+00
  0.00000000E+00  0.00000000E+00  0.00000000E+00
  0.00000000E+00  0.00000000E+00  0.00000000E+00
  0.00000000E+00  0.00000000E+00  0.00000000E+00
  0.00000000E+00  0.00000000E+00  0.00000000E+00
  0.00000000E+00  0.00000000E+00  0.00000000E+00
  0.00000000E+00  0.00000000E+00  0.00000000E+00
  0.00000000E+00  0.00000000E+00  0.00000000E+00
  0.00000000E+00  0.00000000E+00  0.00000000E+00
  0.00000000E+00  0.00000000E+00  0.00000000E+00
  0.00000000E+00  0.00000000E+00  0.00000000E+00
  0.00000000E+00  0.00000000E+00  0.00000000E+00
  0.00000000E+00  0.00000000E+00  0.00000000E+00
  0.00000000E+00  0.00000000E+00  0.00000000E+00
  0.00000000E+00  0.00000000E+00  0.00000000E+00
  0.00000000E+00  0.00000000E+00  0.00000000E+00
  0.00000000E+00  0.00000000E+00  0.00000000E+00
  0.00000000E+00  0.00000000E+00  0.00000000E+00
  0.00000000E+00  0.00000000E+00  0.00000000E+00
  0.00000000E+00  0.00000000E+00  0.00000000E+00
  0.00000000E+00  0.00000000E+00  0.00000000E+00
  0.00000000E+00  0.00000000E+00  0.00000000E+00
  0.00000000E+00  0.00000000E+00  0.00000000E+00
  0.00000000E+00  0.00000000E+00  0.00000000E+00
  0.00000000E+00  0.00000000E+00  0.00000000E+00
  0.00000000E+00  0.00000000E+00  0.00000000E+00
  0.00000000E+00  0.00000000E+00  0.00000000E+00
  0.00000000E+00  0.00000000E+00  0.00000000E+00
  0.00000000E+00  0.00000000E+00  0.00000000E+00
  0.00000000E+00  0.00000000E+00  0.00000000E+00
  0.00000000E+00  0.00000000E+00  0.00000000E+00
  0.00000000E+00  0.00000000E+00  0.00000000E+00
  0.00000000E+00  0.00000000E+00  0.00000000E+00
  0.00000000E+00  0.00000000E+00  0.00000000E+00
  0.00000000E+00  0.00000000E+00  0.00000000E+00
  0.00000000E+00  0.00000000E+00  0.00000000E+00
  0.00000000E+00  0.00000000E+00  0.00000000E+00
  0.00000000E+00  0.00000000E+00  0.00000000E+00
  0.00000000E+00  0.00000000E+00  0.00000000E+00
  0.00000000E+00  0.00000000E+00  0.00000000E+00
  0.00000000E+00  0.00000000E+00  0.00000000E+00
  0.00000000E+00  0.00000000E+00  0.00000000E+00
  0.00000000E+00  0.00000000E+00  0.00000000E+00
  0.00000000E+00  0.00000000E+00  0.00000000E+00
  0.00000000E+00  0.00000000E+00  0.00000000E+00
  0.00000000E+00  0.00000000E+00  0.00000000E+00
  0.00000000E+00  0.00000000E+00  0.00000000E+00
  0.00000000E+00  0.00000000E+00  0.00000000E+00
  0.00000000E+00  0.00000000E+00  0.00000000E+00
  0.00000000E+00  0.00000000E+00  0.00000000E+00
  0.00000000E+00  0.00000000E+00  0.00000000E+00
  0.00000000E+00  0.00000000E+00  0.00000000E+00
  0.00000000E+00  0.00000000E+00  0.00000000E+00
  0.00000000E+00  0.00000000E+00  0.00000000E+00
  0.00000000E+00  0.00000000E+00  0.00000000E+00
  0.00000000E+00  0.00000000E+00  0.00000000E+00
  0.00000000E+00  0.00000000E+00  0.00000000E+00
  0.00000000E+00  0.00000000E+00  0.00000000E+00
  0.00000000E+00  0.00000000E+00  0.00000000E+00
  0.00000000E+00  0.00000000E+00  0.00000000E+00
  0.00000000E+00  0.00000000E+00  0.00000000E+00
  0.00000000E+00  0.00000000E+00  0.00000000E+00
  0.00000000E+00  0.00000000E+00  0.00000000E+00
  0.00000000E+00  0.00000000E+00  0.00000000E+00
  0.00000000E+00  0.00000000E+00  0.00000000E+00
  0.00000000E+00  0.00000000E+00  0.00000000E+00
  0.00000000E+00  0.00000000E+00  0.00000000E+00
  0.00000000E+00  0.00000000E+00  0.00000000E+00
  0.00000000E+00  0.00000000E+00  0.00000000E+00
  0.00000000E+00  0.00000000E+00  0.00000000E+00
