"C194 N12 H12 Co1 O8"                   
   1.00000000000000     
    22.2532138824000008    0.0000000000000000    0.0000000000000000
   -11.1253383264999997   19.2597887069000002    0.0000000000000000
    -0.2113467281000000    0.0694057870000000   25.7528081775000004
   C    N    H    Co   O 
   194    12    12     1     8
Direct
  0.9998624206477373  0.0000546812096545  0.0531510284415688
  0.0369401994672316  0.0741821894328893  0.0522665586128070
  0.9999038226119552  0.1112335792253134  0.0522130725298666
  0.0369735316356170  0.1853631657452439  0.0508053276492362
  0.9999307978332581  0.2224365123899901  0.0504673476807866
  0.0369105507597070  0.2964731481205831  0.0482992398279407
  0.9998493430149082  0.3335155085085972  0.0476030877077349
  0.0368196073938947  0.4075301868094243  0.0455075606012869
  0.9997986210946337  0.4445321241980267  0.0458195306200651
  0.0368363246521568  0.5186075054956873  0.0458792518412636
  0.9997856994855354  0.5555791170572917  0.0473519538501037
  0.0367959015671957  0.6295557786204355  0.0492793515918777
  0.9997329860996231  0.6665640871495810  0.0507116601296431
  0.0367929266907865  0.7406358564560378  0.0524813328393350
  0.9997710750897113  0.7776849025656176  0.0531189516543904
  0.0368716601072450  0.8518227983744211  0.0537144306080535
  0.9998392818089954  0.8888920365133259  0.0536485594882166
  0.0369161655821486  0.9629837215884152  0.0532861865096095
  0.1109919063211180  0.0000315886934530  0.0521407093808790
  0.1480196473785469  0.0741269824888349  0.0502235070733548
  0.1110282446254303  0.1112319038237146  0.0504496105326595
  0.1480149948224252  0.1852699288324615  0.0483013560655152
  0.1110039121709718  0.2223650974884777  0.0487746444178399
  0.1480048073302100  0.2964541636285389  0.0465222016134490
  0.1109575469406678  0.3334934821970990  0.0462833718695634
  0.1479339039094256  0.4075544029911313  0.0437433321782734
  0.1108616178512349  0.4445685528440819  0.0436775005925085
  0.1478826355857095  0.5186283057463896  0.0430591981989039
  0.1108352592500808  0.5556430850545127  0.0449490093058671
  0.1478944739170274  0.6296519428053173  0.0468751379318562
  0.1108869697884955  0.6666130705822013  0.0494026716447280
  0.1479490817767726  0.7406867232552159  0.0513636955199459
  0.1109203777077639  0.7777349320068865  0.0527302222915651
  0.1479676162374020  0.8518098731258945  0.0532534974351293
  0.1109418653965335  0.8888945186937960  0.0534051063683592
  0.1479930845151642  0.9629763115061678  0.0522841466005630
  0.2220499988318423  0.0000308908825559  0.0510270519268161
  0.2590324487074582  0.0740431818359397  0.0487177412960449
  0.2220063291930785  0.1111335253867693  0.0479421136403175
  0.2590001671803179  0.1851978426424239  0.0455386746445683
  0.2220091380432052  0.2222716927942656  0.0456512472344670
  0.2590111137057107  0.2963542445512388  0.0439034248729797
  0.2220326518321585  0.3334576222215730  0.0442223033907609
  0.2589981199582283  0.4074850112181139  0.0424119942232011
  0.2219617453849381  0.4445596426129867  0.0421020043467237
  0.2590162658620088  0.5186786953096387  0.0413471208182585
  0.2219871600056891  0.5556999624877150  0.0422010824362147
  0.2590694972846421  0.6297786092575279  0.0439925706520938
  0.2220193353778015  0.6667221294630039  0.0466878565117028
  0.2590550286425071  0.7407050509029958  0.0494709542297116
  0.2220143187464032  0.7777415967268837  0.0514227450370015
  0.2590756490780208  0.8518409478622289  0.0526253409845197
  0.2220563631943193  0.8889009753868109  0.0529240501941644
  0.2590983935460329  0.9630106949080570  0.0520217303318375
  0.3331294408363306  0.0000532865419558  0.0516783862432675
  0.3701416225558063  0.0741153207492218  0.0497858472973149
  0.3331045652032927  0.1111214005485905  0.0478011108781899
  0.3701012290637991  0.1851777298375623  0.0453065207380305
  0.3330413337611446  0.2222304149732608  0.0440060325921294
  0.3700747761221095  0.2962820658983816  0.0425179442732926
  0.3330400794793533  0.3333671356907999  0.0424716640020435
  0.3700878334834172  0.4074657930760637  0.0418076068727800
  0.3330837111383147  0.4445232808848800  0.0416508621185017
  0.3701647516765192  0.5186598098442445  0.0413637247493099
  0.3331170464797566  0.5557154000145843  0.0414219134198319
  0.3701882663633498  0.6297520363746969  0.0429011493647096
  0.3331221809552289  0.6667592907699316  0.0446065304171412
  0.3701882631001681  0.7407527958163058  0.0477610506691732
  0.3331665512432664  0.7777565110095779  0.0499307167001390
  0.3702364721337119  0.8518525276317561  0.0519312832044108
  0.3331882658259175  0.8889143376520394  0.0527071200960378
  0.3701942831377707  0.9629985160785495  0.0526350754414722
  0.4442927827832648  0.0000454719165219  0.0525512958201375
  0.4813209984756526  0.0741679810910441  0.0512427752781974
  0.4442340587971785  0.1111944890002690  0.0494928853245611
  0.4812281523838919  0.1852227919430760  0.0468448551929512
  0.4441579986633357  0.2222470041206677  0.0447206085534120
  0.4812088998306905  0.2963091121902295  0.0423766256215075
  0.4441716718847530  0.3333413887581926  0.0416566117659514
  0.4812379015246933  0.4074258357693097  0.0411839957719309
  0.4441983002193837  0.4444982280351013  0.0416865291312689
  0.4812724252298608  0.5186097933261493  0.0417276183480340
  0.4442245245417951  0.5556752360079500  0.0416607154171516
  0.4812859364162207  0.6297402195569930  0.0424384137767220
  0.4442534325093490  0.6667385500606997  0.0437116992494850
  0.4813472841066613  0.7407994641091804  0.0461444123407801
  0.4443257447779843  0.7778016690925469  0.0484034193705725
  0.4813693681851845  0.8518385217598023  0.0506413078355763
  0.4443067734741959  0.8888780748722098  0.0521237711429237
  0.4813485225272274  0.9629973647361538  0.0527547008024953
  0.5554575490737363  0.0000521649609553  0.0524951970161567
  0.5924549035259261  0.0741344813770297  0.0519043865749467
  0.5553803265682475  0.1111990503474800  0.0508044480232854
  0.5923970257421516  0.1852769245104753  0.0483732637271359
  0.5553356532228975  0.2222822484467031  0.0460454810886617
  0.5923608309982598  0.2963200473518484  0.0429871511104452
  0.5552792425951978  0.3333399612620198  0.0415775347502176
  0.5923359407897237  0.4074070077059204  0.0406803135700002
  0.5552866166855281  0.4444664155648823  0.0408711226370784
  0.5923643399526100  0.5185804490520454  0.0415160258670113
  0.5553699219786807  0.5556297893763968  0.0417647135150503
  0.5924322471415024  0.6297347743902506  0.0424667925583293
  0.5553957174461459  0.6667905083403483  0.0428843297109154
  0.5924523880169019  0.7408325490832226  0.0443065850738478
  0.5554167023480971  0.7778643869602959  0.0461840837261391
  0.5924583846171458  0.8519146510810103  0.0483170165284577
  0.5554533964172919  0.8889065910938285  0.0504750341221936
  0.5925037512807876  0.9629971825566841  0.0517559354222996
  0.6665376298982792  0.0000375503791901  0.0515024412742306
  0.7035718232923571  0.0741388246971866  0.0518915800766777
  0.6665435369746859  0.1111976818819258  0.0515031517771263
  0.7035783760368801  0.1853094611841257  0.0499204237426412
  0.6665129119971667  0.2223452920655191  0.0478587466177203
  0.7035059370454633  0.2963523350309742  0.0451390186812617
  0.6664114061134185  0.3333361675341138  0.0426164230838495
  0.7034728895397251  0.4074342030435858  0.0416567161897845
  0.6664354262650107  0.4444631038625246  0.0411225486198461
  0.7035018695670843  0.5185718347086024  0.0425461613384854
  0.6664714713066715  0.5556248219924029  0.0426444638869015
  0.7034716661012936  0.6296412087465484  0.0444443612420500
  0.6664828414518738  0.6667500425233754  0.0437393815050271
  0.7035255321452567  0.7408215180615656  0.0451749085769464
  0.6665192053409044  0.7778716960014194  0.0451567095343393
  0.7035741264132866  0.8519590519505371  0.0472779222935316
  0.6665562834388226  0.8890156891318597  0.0483915511498481
  0.7035757774199354  0.9630185861618585  0.0503214241486774
  0.7776336635171219  0.0000704645165612  0.0510612939230413
  0.8146894043340609  0.0741531722235180  0.0519633499521746
  0.7776712020376237  0.1112328295946199  0.0518137240631660
  0.8146943282782999  0.1853013756085460  0.0510334533860259
  0.7776374155757395  0.2223629978480020  0.0497025338996337
  0.8146564754863732  0.2964323138032796  0.0478261757839746
  0.7776110093745245  0.3334195160675080  0.0455603745585336
  0.8146667106707355  0.4074843552734251  0.0443622800474088
  0.7775986199528617  0.4445109839878398  0.0430651797314781
  0.8146253289673595  0.5185462686394828  0.0446253904018690
  0.7775287811319700  0.5555469527471786  0.0448063835436656
  0.8145369987442592  0.6295748364962819  0.0475386442675116
  0.7775013461444118  0.6666224313370037  0.0471739303812484
  0.8145625491591488  0.7407305689822721  0.0490913777520703
  0.7775714992311649  0.7778278431114174  0.0478662952579043
  0.8145935129585880  0.8518613932849348  0.0497622667065443
  0.7776061051942733  0.8889778974260665  0.0492011080664554
  0.8146383289340733  0.9630313619763768  0.0509310914002015
  0.8887214831391361  0.0000759870912574  0.0523352697129695
  0.9257944215634311  0.0741577456177893  0.0525918212757333
  0.8887552505477174  0.1112301798611384  0.0522329002556390
  0.9258205386298997  0.1853446335267321  0.0514419591163389
  0.8887903965373596  0.2223923160080261  0.0506435883977190
  0.9258203712065196  0.2964808590988710  0.0489036009978179
  0.8887520428151987  0.3334987212435365  0.0477482385330958
  0.9257473418082398  0.4075023512096081  0.0464355911676932
  0.8886819959110497  0.4445095585808971  0.0456038100916345
  0.9257100663768938  0.5185538267661087  0.0465149268696621
  0.8886686382310032  0.5555452585335274  0.0467834568431655
  0.9256762977233350  0.6295424328102186  0.0493337189092884
  0.8886238319782294  0.6665756493281876  0.0499102491305905
  0.9256528260237431  0.7406145354944655  0.0519404339912057
  0.8886083998631307  0.7777038130421303  0.0516195536932642
  0.9257059226958688  0.8518236769972845  0.0527839391936951
  0.8886758808356277  0.8888814119678301  0.0520731091754456
  0.9257675536324399  0.9630156059599457  0.0528395913917379
  0.2668646485558384  0.1376007024424055  0.1752097825271548
  0.3368636235019338  0.1898674022581233  0.1731957023283357
  0.3498403721952172  0.2581250604291228  0.1722572411254433
  0.2954639409195181  0.2735623851065441  0.1726741414395860
  0.2256111022737528  0.2204385905278414  0.1743736431714851
  0.2114956525919567  0.1517710844489883  0.1759721888502526
  0.3284146510448309  0.3489248182612883  0.1711884299123838
  0.4144698128844553  0.3245606579480054  0.1706908362073705
  0.3229748733781790  0.4498289901450576  0.1704471975382802
  0.4011575667662370  0.5633414226198710  0.1707209684052131
  0.2838167766605721  0.4864665254449960  0.1704303249202610
  0.3333570222485776  0.5581299895432892  0.1705497820509549
  0.3131788549830929  0.6087270553560629  0.1701602807941143
  0.2422313961976812  0.5860729873001986  0.1701013599105963
  0.1934305445226983  0.5140607856999821  0.1701888046627857
  0.2126302635776867  0.4627744367172042  0.1701069722942634
  0.5339626121835011  0.3891705787283115  0.1698088996070339
  0.6121105140466341  0.5025681543616898  0.1710636911979364
  0.6217930693272677  0.3436765866977041  0.1686766014736918
  0.6927355089018405  0.3662628611625891  0.1690970710805715
  0.7415525408917816  0.4382150159514566  0.1706352679215470
  0.7224343610174913  0.4895613645783641  0.1714950862555611
  0.6512759799835450  0.4659273322220585  0.1710275740358895
  0.6017037262687310  0.3942929145068064  0.1698758967568068
  0.6065918488813153  0.6033965064267477  0.1717074834118151
  0.5207437667736912  0.6280971189480411  0.1718767660294844
  0.6397594800952007  0.6786940922092057  0.1727741392762994
  0.7098196360564515  0.7313208451208553  0.1729163979620552
  0.7246427283486696  0.8001907219233644  0.1734495093244632
  0.6696575102950177  0.8149276763834123  0.1738393477011400
  0.5993591209379048  0.7630648506604203  0.1736389506001785
  0.5856230750100266  0.6945183909160306  0.1730349561391833
  0.4006301143960442  0.3791559589106157  0.1704717497936983
  0.2918149813613766  0.3811775931499071  0.1707858801124544
  0.3941262215050116  0.4972920031955965  0.1705928253153672
  0.4756885387906564  0.3282562294014610  0.1699080976469034
  0.5409566439121178  0.4551686653341562  0.1704855441444053
  0.6432239886265378  0.5711734658406726  0.1715020882065588
  0.5344233348860499  0.5733551060234987  0.1712800287547367
  0.4594363866715199  0.6242902279685794  0.1714141797725475
  0.1187309829806935  0.4919812404378590  0.1694940862493510
  0.6871696052419267  0.8883782030752769  0.1730962453076543
  0.8162561800965307  0.4602474084362100  0.1703388693220020
  0.2501651489850616  0.0643751117531508  0.1757290662784001
  0.3782683439664325  0.1773065020070632  0.1721746802385766
  0.1838301054935485  0.2326567758642426  0.1740942823855605
  0.1584936339841505  0.1082267233367062  0.1772015237041842
  0.3519223354508085  0.6638811219830529  0.1693743959664289
  0.2230793554457620  0.6225904338464900  0.1692957202249090
  0.1736476290927484  0.4078229633922277  0.1694769503660183
  0.5830131756055934  0.2885981408657514  0.1667392308528406
  0.7118449511259897  0.3297685957990737  0.1674806640284814
  0.7614507348922857  0.5445023938960958  0.1720983159346972
  0.7511241629882335  0.7184631024481618  0.1718039228408230
  0.7778377386677775  0.8434042407322835  0.1727852629218418
  0.5583776224380657  0.7762732465182154  0.1733091495905228
  0.4675262711092714  0.4762546525649753  0.1704260384308895
  0.1023061770031077  0.5381494320189972  0.1698716844060613
  0.0759836272351393  0.4282458843388071  0.1680475018001673
  0.6383922447212669  0.9010935900251411  0.1741364297943520
  0.7499279637011256  0.9340875872463243  0.1707461369135785
  0.8590665636541956  0.5239722287443129  0.1713875855490272
  0.8326017919159554  0.4140750995005575  0.1684818000974033
  0.1877264614099587  0.0181581870327179  0.1789810736497941
  0.2993031788311526  0.0524016693713136  0.1722675960593776
 
  0.00000000E+00  0.00000000E+00  0.00000000E+00
  0.00000000E+00  0.00000000E+00  0.00000000E+00
  0.00000000E+00  0.00000000E+00  0.00000000E+00
  0.00000000E+00  0.00000000E+00  0.00000000E+00
  0.00000000E+00  0.00000000E+00  0.00000000E+00
  0.00000000E+00  0.00000000E+00  0.00000000E+00
  0.00000000E+00  0.00000000E+00  0.00000000E+00
  0.00000000E+00  0.00000000E+00  0.00000000E+00
  0.00000000E+00  0.00000000E+00  0.00000000E+00
  0.00000000E+00  0.00000000E+00  0.00000000E+00
  0.00000000E+00  0.00000000E+00  0.00000000E+00
  0.00000000E+00  0.00000000E+00  0.00000000E+00
  0.00000000E+00  0.00000000E+00  0.00000000E+00
  0.00000000E+00  0.00000000E+00  0.00000000E+00
  0.00000000E+00  0.00000000E+00  0.00000000E+00
  0.00000000E+00  0.00000000E+00  0.00000000E+00
  0.00000000E+00  0.00000000E+00  0.00000000E+00
  0.00000000E+00  0.00000000E+00  0.00000000E+00
  0.00000000E+00  0.00000000E+00  0.00000000E+00
  0.00000000E+00  0.00000000E+00  0.00000000E+00
  0.00000000E+00  0.00000000E+00  0.00000000E+00
  0.00000000E+00  0.00000000E+00  0.00000000E+00
  0.00000000E+00  0.00000000E+00  0.00000000E+00
  0.00000000E+00  0.00000000E+00  0.00000000E+00
  0.00000000E+00  0.00000000E+00  0.00000000E+00
  0.00000000E+00  0.00000000E+00  0.00000000E+00
  0.00000000E+00  0.00000000E+00  0.00000000E+00
  0.00000000E+00  0.00000000E+00  0.00000000E+00
  0.00000000E+00  0.00000000E+00  0.00000000E+00
  0.00000000E+00  0.00000000E+00  0.00000000E+00
  0.00000000E+00  0.00000000E+00  0.00000000E+00
  0.00000000E+00  0.00000000E+00  0.00000000E+00
  0.00000000E+00  0.00000000E+00  0.00000000E+00
  0.00000000E+00  0.00000000E+00  0.00000000E+00
  0.00000000E+00  0.00000000E+00  0.00000000E+00
  0.00000000E+00  0.00000000E+00  0.00000000E+00
  0.00000000E+00  0.00000000E+00  0.00000000E+00
  0.00000000E+00  0.00000000E+00  0.00000000E+00
  0.00000000E+00  0.00000000E+00  0.00000000E+00
  0.00000000E+00  0.00000000E+00  0.00000000E+00
  0.00000000E+00  0.00000000E+00  0.00000000E+00
  0.00000000E+00  0.00000000E+00  0.00000000E+00
  0.00000000E+00  0.00000000E+00  0.00000000E+00
  0.00000000E+00  0.00000000E+00  0.00000000E+00
  0.00000000E+00  0.00000000E+00  0.00000000E+00
  0.00000000E+00  0.00000000E+00  0.00000000E+00
  0.00000000E+00  0.00000000E+00  0.00000000E+00
  0.00000000E+00  0.00000000E+00  0.00000000E+00
  0.00000000E+00  0.00000000E+00  0.00000000E+00
  0.00000000E+00  0.00000000E+00  0.00000000E+00
  0.00000000E+00  0.00000000E+00  0.00000000E+00
  0.00000000E+00  0.00000000E+00  0.00000000E+00
  0.00000000E+00  0.00000000E+00  0.00000000E+00
  0.00000000E+00  0.00000000E+00  0.00000000E+00
  0.00000000E+00  0.00000000E+00  0.00000000E+00
  0.00000000E+00  0.00000000E+00  0.00000000E+00
  0.00000000E+00  0.00000000E+00  0.00000000E+00
  0.00000000E+00  0.00000000E+00  0.00000000E+00
  0.00000000E+00  0.00000000E+00  0.00000000E+00
  0.00000000E+00  0.00000000E+00  0.00000000E+00
  0.00000000E+00  0.00000000E+00  0.00000000E+00
  0.00000000E+00  0.00000000E+00  0.00000000E+00
  0.00000000E+00  0.00000000E+00  0.00000000E+00
  0.00000000E+00  0.00000000E+00  0.00000000E+00
  0.00000000E+00  0.00000000E+00  0.00000000E+00
  0.00000000E+00  0.00000000E+00  0.00000000E+00
  0.00000000E+00  0.00000000E+00  0.00000000E+00
  0.00000000E+00  0.00000000E+00  0.00000000E+00
  0.00000000E+00  0.00000000E+00  0.00000000E+00
  0.00000000E+00  0.00000000E+00  0.00000000E+00
  0.00000000E+00  0.00000000E+00  0.00000000E+00
  0.00000000E+00  0.00000000E+00  0.00000000E+00
  0.00000000E+00  0.00000000E+00  0.00000000E+00
  0.00000000E+00  0.00000000E+00  0.00000000E+00
  0.00000000E+00  0.00000000E+00  0.00000000E+00
  0.00000000E+00  0.00000000E+00  0.00000000E+00
  0.00000000E+00  0.00000000E+00  0.00000000E+00
  0.00000000E+00  0.00000000E+00  0.00000000E+00
  0.00000000E+00  0.00000000E+00  0.00000000E+00
  0.00000000E+00  0.00000000E+00  0.00000000E+00
  0.00000000E+00  0.00000000E+00  0.00000000E+00
  0.00000000E+00  0.00000000E+00  0.00000000E+00
  0.00000000E+00  0.00000000E+00  0.00000000E+00
  0.00000000E+00  0.00000000E+00  0.00000000E+00
  0.00000000E+00  0.00000000E+00  0.00000000E+00
  0.00000000E+00  0.00000000E+00  0.00000000E+00
  0.00000000E+00  0.00000000E+00  0.00000000E+00
  0.00000000E+00  0.00000000E+00  0.00000000E+00
  0.00000000E+00  0.00000000E+00  0.00000000E+00
  0.00000000E+00  0.00000000E+00  0.00000000E+00
  0.00000000E+00  0.00000000E+00  0.00000000E+00
  0.00000000E+00  0.00000000E+00  0.00000000E+00
  0.00000000E+00  0.00000000E+00  0.00000000E+00
  0.00000000E+00  0.00000000E+00  0.00000000E+00
  0.00000000E+00  0.00000000E+00  0.00000000E+00
  0.00000000E+00  0.00000000E+00  0.00000000E+00
  0.00000000E+00  0.00000000E+00  0.00000000E+00
  0.00000000E+00  0.00000000E+00  0.00000000E+00
  0.00000000E+00  0.00000000E+00  0.00000000E+00
  0.00000000E+00  0.00000000E+00  0.00000000E+00
  0.00000000E+00  0.00000000E+00  0.00000000E+00
  0.00000000E+00  0.00000000E+00  0.00000000E+00
  0.00000000E+00  0.00000000E+00  0.00000000E+00
  0.00000000E+00  0.00000000E+00  0.00000000E+00
  0.00000000E+00  0.00000000E+00  0.00000000E+00
  0.00000000E+00  0.00000000E+00  0.00000000E+00
  0.00000000E+00  0.00000000E+00  0.00000000E+00
  0.00000000E+00  0.00000000E+00  0.00000000E+00
  0.00000000E+00  0.00000000E+00  0.00000000E+00
  0.00000000E+00  0.00000000E+00  0.00000000E+00
  0.00000000E+00  0.00000000E+00  0.00000000E+00
  0.00000000E+00  0.00000000E+00  0.00000000E+00
  0.00000000E+00  0.00000000E+00  0.00000000E+00
  0.00000000E+00  0.00000000E+00  0.00000000E+00
  0.00000000E+00  0.00000000E+00  0.00000000E+00
  0.00000000E+00  0.00000000E+00  0.00000000E+00
  0.00000000E+00  0.00000000E+00  0.00000000E+00
  0.00000000E+00  0.00000000E+00  0.00000000E+00
  0.00000000E+00  0.00000000E+00  0.00000000E+00
  0.00000000E+00  0.00000000E+00  0.00000000E+00
  0.00000000E+00  0.00000000E+00  0.00000000E+00
  0.00000000E+00  0.00000000E+00  0.00000000E+00
  0.00000000E+00  0.00000000E+00  0.00000000E+00
  0.00000000E+00  0.00000000E+00  0.00000000E+00
  0.00000000E+00  0.00000000E+00  0.00000000E+00
  0.00000000E+00  0.00000000E+00  0.00000000E+00
  0.00000000E+00  0.00000000E+00  0.00000000E+00
  0.00000000E+00  0.00000000E+00  0.00000000E+00
  0.00000000E+00  0.00000000E+00  0.00000000E+00
  0.00000000E+00  0.00000000E+00  0.00000000E+00
  0.00000000E+00  0.00000000E+00  0.00000000E+00
  0.00000000E+00  0.00000000E+00  0.00000000E+00
  0.00000000E+00  0.00000000E+00  0.00000000E+00
  0.00000000E+00  0.00000000E+00  0.00000000E+00
  0.00000000E+00  0.00000000E+00  0.00000000E+00
  0.00000000E+00  0.00000000E+00  0.00000000E+00
  0.00000000E+00  0.00000000E+00  0.00000000E+00
  0.00000000E+00  0.00000000E+00  0.00000000E+00
  0.00000000E+00  0.00000000E+00  0.00000000E+00
  0.00000000E+00  0.00000000E+00  0.00000000E+00
  0.00000000E+00  0.00000000E+00  0.00000000E+00
  0.00000000E+00  0.00000000E+00  0.00000000E+00
  0.00000000E+00  0.00000000E+00  0.00000000E+00
  0.00000000E+00  0.00000000E+00  0.00000000E+00
  0.00000000E+00  0.00000000E+00  0.00000000E+00
  0.00000000E+00  0.00000000E+00  0.00000000E+00
  0.00000000E+00  0.00000000E+00  0.00000000E+00
  0.00000000E+00  0.00000000E+00  0.00000000E+00
  0.00000000E+00  0.00000000E+00  0.00000000E+00
  0.00000000E+00  0.00000000E+00  0.00000000E+00
  0.00000000E+00  0.00000000E+00  0.00000000E+00
  0.00000000E+00  0.00000000E+00  0.00000000E+00
  0.00000000E+00  0.00000000E+00  0.00000000E+00
  0.00000000E+00  0.00000000E+00  0.00000000E+00
  0.00000000E+00  0.00000000E+00  0.00000000E+00
  0.00000000E+00  0.00000000E+00  0.00000000E+00
  0.00000000E+00  0.00000000E+00  0.00000000E+00
  0.00000000E+00  0.00000000E+00  0.00000000E+00
  0.00000000E+00  0.00000000E+00  0.00000000E+00
  0.00000000E+00  0.00000000E+00  0.00000000E+00
  0.00000000E+00  0.00000000E+00  0.00000000E+00
  0.00000000E+00  0.00000000E+00  0.00000000E+00
  0.00000000E+00  0.00000000E+00  0.00000000E+00
  0.00000000E+00  0.00000000E+00  0.00000000E+00
  0.00000000E+00  0.00000000E+00  0.00000000E+00
  0.00000000E+00  0.00000000E+00  0.00000000E+00
  0.00000000E+00  0.00000000E+00  0.00000000E+00
  0.00000000E+00  0.00000000E+00  0.00000000E+00
  0.00000000E+00  0.00000000E+00  0.00000000E+00
  0.00000000E+00  0.00000000E+00  0.00000000E+00
  0.00000000E+00  0.00000000E+00  0.00000000E+00
  0.00000000E+00  0.00000000E+00  0.00000000E+00
  0.00000000E+00  0.00000000E+00  0.00000000E+00
  0.00000000E+00  0.00000000E+00  0.00000000E+00
  0.00000000E+00  0.00000000E+00  0.00000000E+00
  0.00000000E+00  0.00000000E+00  0.00000000E+00
  0.00000000E+00  0.00000000E+00  0.00000000E+00
  0.00000000E+00  0.00000000E+00  0.00000000E+00
  0.00000000E+00  0.00000000E+00  0.00000000E+00
  0.00000000E+00  0.00000000E+00  0.00000000E+00
  0.00000000E+00  0.00000000E+00  0.00000000E+00
  0.00000000E+00  0.00000000E+00  0.00000000E+00
  0.00000000E+00  0.00000000E+00  0.00000000E+00
  0.00000000E+00  0.00000000E+00  0.00000000E+00
  0.00000000E+00  0.00000000E+00  0.00000000E+00
  0.00000000E+00  0.00000000E+00  0.00000000E+00
  0.00000000E+00  0.00000000E+00  0.00000000E+00
  0.00000000E+00  0.00000000E+00  0.00000000E+00
  0.00000000E+00  0.00000000E+00  0.00000000E+00
  0.00000000E+00  0.00000000E+00  0.00000000E+00
  0.00000000E+00  0.00000000E+00  0.00000000E+00
  0.00000000E+00  0.00000000E+00  0.00000000E+00
  0.00000000E+00  0.00000000E+00  0.00000000E+00
  0.00000000E+00  0.00000000E+00  0.00000000E+00
  0.00000000E+00  0.00000000E+00  0.00000000E+00
  0.00000000E+00  0.00000000E+00  0.00000000E+00
  0.00000000E+00  0.00000000E+00  0.00000000E+00
  0.00000000E+00  0.00000000E+00  0.00000000E+00
  0.00000000E+00  0.00000000E+00  0.00000000E+00
  0.00000000E+00  0.00000000E+00  0.00000000E+00
  0.00000000E+00  0.00000000E+00  0.00000000E+00
  0.00000000E+00  0.00000000E+00  0.00000000E+00
  0.00000000E+00  0.00000000E+00  0.00000000E+00
  0.00000000E+00  0.00000000E+00  0.00000000E+00
  0.00000000E+00  0.00000000E+00  0.00000000E+00
  0.00000000E+00  0.00000000E+00  0.00000000E+00
  0.00000000E+00  0.00000000E+00  0.00000000E+00
  0.00000000E+00  0.00000000E+00  0.00000000E+00
  0.00000000E+00  0.00000000E+00  0.00000000E+00
  0.00000000E+00  0.00000000E+00  0.00000000E+00
  0.00000000E+00  0.00000000E+00  0.00000000E+00
  0.00000000E+00  0.00000000E+00  0.00000000E+00
  0.00000000E+00  0.00000000E+00  0.00000000E+00
  0.00000000E+00  0.00000000E+00  0.00000000E+00
  0.00000000E+00  0.00000000E+00  0.00000000E+00
  0.00000000E+00  0.00000000E+00  0.00000000E+00
  0.00000000E+00  0.00000000E+00  0.00000000E+00
  0.00000000E+00  0.00000000E+00  0.00000000E+00
  0.00000000E+00  0.00000000E+00  0.00000000E+00
  0.00000000E+00  0.00000000E+00  0.00000000E+00
  0.00000000E+00  0.00000000E+00  0.00000000E+00
  0.00000000E+00  0.00000000E+00  0.00000000E+00
  0.00000000E+00  0.00000000E+00  0.00000000E+00
  0.00000000E+00  0.00000000E+00  0.00000000E+00
  0.00000000E+00  0.00000000E+00  0.00000000E+00
  0.00000000E+00  0.00000000E+00  0.00000000E+00
  0.00000000E+00  0.00000000E+00  0.00000000E+00
